Minimize

z1_0_1 + z1_0_2 + z1_0_3 + z1_0_4 + z1_0_5 + z1_0_6 + z1_0_7 + z1_0_8 + z1_0_9 + z1_1_2 + z1_1_3 + z1_1_4 + z1_1_5 + z1_1_6 + z1_1_7 + z1_1_8 + z1_1_9 + z1_2_3 + z1_2_4 + z1_2_5 + z1_2_6 + z1_2_7 + z1_2_8 + z1_2_9 + z1_3_4 + z1_3_5 + z1_3_6 + z1_3_7 + z1_3_8 + z1_3_9 + z1_4_5 + z1_4_6 + z1_4_7 + z1_4_8 + z1_4_9 + z1_5_6 + z1_5_7 + z1_5_8 + z1_5_9 + z1_6_7 + z1_6_8 + z1_6_9 + z1_7_8 + z1_7_9 + z1_8_9


Subject To

a0: x_0 + x_1 + x_2 + x_3 + x_4 + x_5 + x_6 + x_7 + x_8 + x_9 = 45
b0: z1_0_1 - x_0 + x_1 >= 0
b1: z1_0_2 - x_0 + x_2 >= 0
b2: z1_0_3 - x_0 + x_3 >= 0
b3: z1_0_4 - x_0 + x_4 >= 0
b4: z1_0_5 - x_0 + x_5 >= 0
b5: z1_0_6 - x_0 + x_6 >= 0
b6: z1_0_7 - x_0 + x_7 >= 0
b7: z1_0_8 - x_0 + x_8 >= 0
b8: z1_0_9 - x_0 + x_9 >= 0
b9: z1_1_2 - x_1 + x_2 >= 0
b10: z1_1_3 - x_1 + x_3 >= 0
b11: z1_1_4 - x_1 + x_4 >= 0
b12: z1_1_5 - x_1 + x_5 >= 0
b13: z1_1_6 - x_1 + x_6 >= 0
b14: z1_1_7 - x_1 + x_7 >= 0
b15: z1_1_8 - x_1 + x_8 >= 0
b16: z1_1_9 - x_1 + x_9 >= 0
b17: z1_2_3 - x_2 + x_3 >= 0
b18: z1_2_4 - x_2 + x_4 >= 0
b19: z1_2_5 - x_2 + x_5 >= 0
b20: z1_2_6 - x_2 + x_6 >= 0
b21: z1_2_7 - x_2 + x_7 >= 0
b22: z1_2_8 - x_2 + x_8 >= 0
b23: z1_2_9 - x_2 + x_9 >= 0
b24: z1_3_4 - x_3 + x_4 >= 0
b25: z1_3_5 - x_3 + x_5 >= 0
b26: z1_3_6 - x_3 + x_6 >= 0
b27: z1_3_7 - x_3 + x_7 >= 0
b28: z1_3_8 - x_3 + x_8 >= 0
b29: z1_3_9 - x_3 + x_9 >= 0
b30: z1_4_5 - x_4 + x_5 >= 0
b31: z1_4_6 - x_4 + x_6 >= 0
b32: z1_4_7 - x_4 + x_7 >= 0
b33: z1_4_8 - x_4 + x_8 >= 0
b34: z1_4_9 - x_4 + x_9 >= 0
b35: z1_5_6 - x_5 + x_6 >= 0
b36: z1_5_7 - x_5 + x_7 >= 0
b37: z1_5_8 - x_5 + x_8 >= 0
b38: z1_5_9 - x_5 + x_9 >= 0
b39: z1_6_7 - x_6 + x_7 >= 0
b40: z1_6_8 - x_6 + x_8 >= 0
b41: z1_6_9 - x_6 + x_9 >= 0
b42: z1_7_8 - x_7 + x_8 >= 0
b43: z1_7_9 - x_7 + x_9 >= 0
b44: z1_8_9 - x_8 + x_9 >= 0
c0: z1_0_1 - x_1 + x_0 >= 0
c1: z1_0_2 - x_2 + x_0 >= 0
c2: z1_0_3 - x_3 + x_0 >= 0
c3: z1_0_4 - x_4 + x_0 >= 0
c4: z1_0_5 - x_5 + x_0 >= 0
c5: z1_0_6 - x_6 + x_0 >= 0
c6: z1_0_7 - x_7 + x_0 >= 0
c7: z1_0_8 - x_8 + x_0 >= 0
c8: z1_0_9 - x_9 + x_0 >= 0
c9: z1_1_2 - x_2 + x_1 >= 0
c10: z1_1_3 - x_3 + x_1 >= 0
c11: z1_1_4 - x_4 + x_1 >= 0
c12: z1_1_5 - x_5 + x_1 >= 0
c13: z1_1_6 - x_6 + x_1 >= 0
c14: z1_1_7 - x_7 + x_1 >= 0
c15: z1_1_8 - x_8 + x_1 >= 0
c16: z1_1_9 - x_9 + x_1 >= 0
c17: z1_2_3 - x_3 + x_2 >= 0
c18: z1_2_4 - x_4 + x_2 >= 0
c19: z1_2_5 - x_5 + x_2 >= 0
c20: z1_2_6 - x_6 + x_2 >= 0
c21: z1_2_7 - x_7 + x_2 >= 0
c22: z1_2_8 - x_8 + x_2 >= 0
c23: z1_2_9 - x_9 + x_2 >= 0
c24: z1_3_4 - x_4 + x_3 >= 0
c25: z1_3_5 - x_5 + x_3 >= 0
c26: z1_3_6 - x_6 + x_3 >= 0
c27: z1_3_7 - x_7 + x_3 >= 0
c28: z1_3_8 - x_8 + x_3 >= 0
c29: z1_3_9 - x_9 + x_3 >= 0
c30: z1_4_5 - x_5 + x_4 >= 0
c31: z1_4_6 - x_6 + x_4 >= 0
c32: z1_4_7 - x_7 + x_4 >= 0
c33: z1_4_8 - x_8 + x_4 >= 0
c34: z1_4_9 - x_9 + x_4 >= 0
c35: z1_5_6 - x_6 + x_5 >= 0
c36: z1_5_7 - x_7 + x_5 >= 0
c37: z1_5_8 - x_8 + x_5 >= 0
c38: z1_5_9 - x_9 + x_5 >= 0
c39: z1_6_7 - x_7 + x_6 >= 0
c40: z1_6_8 - x_8 + x_6 >= 0
c41: z1_6_9 - x_9 + x_6 >= 0
c42: z1_7_8 - x_8 + x_7 >= 0
c43: z1_7_9 - x_9 + x_7 >= 0
c44: z1_8_9 - x_9 + x_8 >= 0
d0: z1_0_1 >= 1.0
d1: z1_0_2 >= 1.0
d2: z1_0_3 >= 1.0
d3: z1_0_4 >= 1.0
d4: z1_0_5 >= 1.0
d5: z1_0_6 >= 1.0
d6: z1_0_7 >= 1.0
d7: z1_0_8 >= 1.0
d8: z1_0_9 >= 1.0
d9: z1_1_2 >= 1.0
d10: z1_1_3 >= 1.0
d11: z1_1_4 >= 1.0
d12: z1_1_5 >= 1.0
d13: z1_1_6 >= 1.0
d14: z1_1_7 >= 1.0
d15: z1_1_8 >= 1.0
d16: z1_1_9 >= 1.0
d17: z1_2_3 >= 1.0
d18: z1_2_4 >= 1.0
d19: z1_2_5 >= 1.0
d20: z1_2_6 >= 1.0
d21: z1_2_7 >= 1.0
d22: z1_2_8 >= 1.0
d23: z1_2_9 >= 1.0
d24: z1_3_4 >= 1.0
d25: z1_3_5 >= 1.0
d26: z1_3_6 >= 1.0
d27: z1_3_7 >= 1.0
d28: z1_3_8 >= 1.0
d29: z1_3_9 >= 1.0
d30: z1_4_5 >= 1.0
d31: z1_4_6 >= 1.0
d32: z1_4_7 >= 1.0
d33: z1_4_8 >= 1.0
d34: z1_4_9 >= 1.0
d35: z1_5_6 >= 1.0
d36: z1_5_7 >= 1.0
d37: z1_5_8 >= 1.0
d38: z1_5_9 >= 1.0
d39: z1_6_7 >= 1.0
d40: z1_6_8 >= 1.0
d41: z1_6_9 >= 1.0
d42: z1_7_8 >= 1.0
d43: z1_7_9 >= 1.0
d44: z1_8_9 >= 1.0



Bounds


x_0 <= 9
x_1 <= 9
x_2 <= 9
x_3 <= 9
x_4 <= 9
x_5 <= 9
x_6 <= 9
x_7 <= 9
x_8 <= 9
x_9 <= 9

z1_0_1 free
z1_0_2 free
z1_0_3 free
z1_0_4 free
z1_0_5 free
z1_0_6 free
z1_0_7 free
z1_0_8 free
z1_0_9 free
z1_1_2 free
z1_1_3 free
z1_1_4 free
z1_1_5 free
z1_1_6 free
z1_1_7 free
z1_1_8 free
z1_1_9 free
z1_2_3 free
z1_2_4 free
z1_2_5 free
z1_2_6 free
z1_2_7 free
z1_2_8 free
z1_2_9 free
z1_3_4 free
z1_3_5 free
z1_3_6 free
z1_3_7 free
z1_3_8 free
z1_3_9 free
z1_4_5 free
z1_4_6 free
z1_4_7 free
z1_4_8 free
z1_4_9 free
z1_5_6 free
z1_5_7 free
z1_5_8 free
z1_5_9 free
z1_6_7 free
z1_6_8 free
z1_6_9 free
z1_7_8 free
z1_7_9 free
z1_8_9 free


General

 x_0 x_1 x_2 x_3 x_4 x_5 x_6 x_7 x_8 x_9



End
