Minimize

121.066 x_0_1 + 92.85 x_0_2 + 140.543 x_0_3 + 159.947 x_0_5 + 121.066 x_1_0 + 150.0 x_1_2 + 104.211 x_1_9 + 92.85 x_2_0 + 150.0 x_2_1 + 140.543 x_3_0 + 123.415 x_3_5 + 207.838 x_3_7 + 108.12 x_3_8 + 51.523 x_4_5 + 201.029 x_4_6 + 138.0 x_4_9 + 159.947 x_5_0 + 123.415 x_5_3 + 51.523 x_5_4 + 260.415 x_5_6 + 97.306 x_5_7 + 201.029 x_6_4 + 260.415 x_6_5 + 167.624 x_6_7 + 207.838 x_7_3 + 97.306 x_7_5 + 167.624 x_7_6 + 93.161 x_7_8 + 108.12 x_8_3 + 93.161 x_8_7 + 104.211 x_9_1 + 138.0 x_9_4


Subject To

a0: x_0_1 + x_0_2 + x_0_3 + x_0_5 = 1
b0: x_4_6 + x_5_6 + x_7_6 = 1
c0: x_0_1 + x_2_1 + x_9_1 - x_1_0 - x_1_2 - x_1_9 = 0
c1: x_0_2 + x_1_2 - x_2_0 - x_2_1 = 0
c2: x_0_3 + x_5_3 + x_7_3 + x_8_3 - x_3_0 - x_3_5 - x_3_7 - x_3_8 = 0
c3: x_5_4 + x_6_4 + x_9_4 - x_4_5 - x_4_6 - x_4_9 = 0
c4: x_0_5 + x_3_5 + x_4_5 + x_6_5 + x_7_5 - x_5_0 - x_5_3 - x_5_4 - x_5_6 - x_5_7 = 0
c5: x_3_7 + x_5_7 + x_6_7 + x_8_7 - x_7_3 - x_7_5 - x_7_6 - x_7_8 = 0
c6: x_3_8 + x_7_8 - x_8_3 - x_8_7 = 0
c7: x_1_9 + x_4_9 - x_9_1 - x_9_4 = 0
d0: x_0_1 = 1 -> y_1 - y_0 = 1
d1: x_0_2 = 1 -> y_2 - y_0 = 1
d2: x_0_3 = 1 -> y_3 - y_0 = 1
d3: x_0_5 = 1 -> y_5 - y_0 = 1
d4: x_1_0 = 1 -> y_0 - y_1 = 1
d5: x_1_2 = 1 -> y_2 - y_1 = 1
d6: x_1_9 = 1 -> y_9 - y_1 = 1
d7: x_2_0 = 1 -> y_0 - y_2 = 1
d8: x_2_1 = 1 -> y_1 - y_2 = 1
d9: x_3_0 = 1 -> y_0 - y_3 = 1
d10: x_3_5 = 1 -> y_5 - y_3 = 1
d11: x_3_7 = 1 -> y_7 - y_3 = 1
d12: x_3_8 = 1 -> y_8 - y_3 = 1
d13: x_4_5 = 1 -> y_5 - y_4 = 1
d14: x_4_6 = 1 -> y_6 - y_4 = 1
d15: x_4_9 = 1 -> y_9 - y_4 = 1
d16: x_5_0 = 1 -> y_0 - y_5 = 1
d17: x_5_3 = 1 -> y_3 - y_5 = 1
d18: x_5_4 = 1 -> y_4 - y_5 = 1
d19: x_5_6 = 1 -> y_6 - y_5 = 1
d20: x_5_7 = 1 -> y_7 - y_5 = 1
d21: x_6_4 = 1 -> y_4 - y_6 = 1
d22: x_6_5 = 1 -> y_5 - y_6 = 1
d23: x_6_7 = 1 -> y_7 - y_6 = 1
d24: x_7_3 = 1 -> y_3 - y_7 = 1
d25: x_7_5 = 1 -> y_5 - y_7 = 1
d26: x_7_6 = 1 -> y_6 - y_7 = 1
d27: x_7_8 = 1 -> y_8 - y_7 = 1
d28: x_8_3 = 1 -> y_3 - y_8 = 1
d29: x_8_7 = 1 -> y_7 - y_8 = 1
d30: x_9_1 = 1 -> y_1 - y_9 = 1
d31: x_9_4 = 1 -> y_4 - y_9 = 1
e0: y_0 = 0



Bounds


y_0 < 9
y_1 < 9
y_2 < 9
y_3 < 9
y_4 < 9
y_5 < 9
y_6 < 9
y_7 < 9
y_8 < 9
y_9 < 9



Binary

x_0_1 x_0_2 x_0_3 x_0_5 x_1_0 x_1_2 x_1_9 x_2_0 x_2_1 x_3_0 x_3_5 x_3_7 x_3_8 x_4_5 x_4_6 x_4_9 x_5_0 x_5_3 x_5_4 x_5_6 x_5_7 x_6_4 x_6_5 x_6_7 x_7_3 x_7_5 x_7_6 x_7_8 x_8_3 x_8_7 x_9_1 x_9_4


General

 y_0 y_1 y_2 y_3 y_4 y_5 y_6 y_7 y_8 y_9



End
