Minimize

121.066 x_0_1 + 92.85 x_0_2 + 140.543 x_0_3 + 159.947 x_0_5 + 150.0 x_1_2 + 104.211 x_1_9 + 123.415 x_3_5 + 207.838 x_3_7 + 108.12 x_3_8 + 51.523 x_4_5 + 201.029 x_4_6 + 138.0 x_4_9 + 260.415 x_5_6 + 97.306 x_5_7 + 167.624 x_6_7 + 93.161 x_7_8


Subject To

a0: f_0_1 - f_1_0 + f_0_2 - f_2_0 + f_0_3 - f_3_0 + f_0_5 - f_5_0 = 10
b0: x_9_1 + x_9_4 + x_9_1 + x_9_4 >= 1
b1: x_9_1 + x_9_4 + x_9_1 + x_9_4 >= 1
b2: x_9_1 + x_9_4 + x_9_1 + x_9_4 >= 1
b3: x_9_1 + x_9_4 + x_9_1 + x_9_4 >= 1
b4: x_9_1 + x_9_4 + x_9_1 + x_9_4 >= 1
b5: x_9_1 + x_9_4 + x_9_1 + x_9_4 >= 1
b6: x_9_1 + x_9_4 + x_9_1 + x_9_4 >= 1
b7: x_9_1 + x_9_4 + x_9_1 + x_9_4 >= 1
b8: x_9_1 + x_9_4 + x_9_1 + x_9_4 >= 1
c0: f_0_1 - f_1_0 - 9 x_0_1 <= 0
c1: f_0_2 - f_2_0 - 9 x_0_2 <= 0
c2: f_0_3 - f_3_0 - 9 x_0_3 <= 0
c3: f_0_5 - f_5_0 - 9 x_0_5 <= 0
c4: f_1_2 - f_2_1 - 9 x_1_2 <= 0
c5: f_1_9 - f_9_1 - 9 x_1_9 <= 0
c6: f_3_5 - f_5_3 - 9 x_3_5 <= 0
c7: f_3_7 - f_7_3 - 9 x_3_7 <= 0
c8: f_3_8 - f_8_3 - 9 x_3_8 <= 0
c9: f_4_5 - f_5_4 - 9 x_4_5 <= 0
c10: f_4_6 - f_6_4 - 9 x_4_6 <= 0
c11: f_4_9 - f_9_4 - 9 x_4_9 <= 0
c12: f_5_6 - f_6_5 - 9 x_5_6 <= 0
c13: f_5_7 - f_7_5 - 9 x_5_7 <= 0
c14: f_6_7 - f_7_6 - 9 x_6_7 <= 0
c15: f_7_8 - f_8_7 - 9 x_7_8 <= 0
d0: x_0_1 + x_0_2 + x_0_3 + x_0_5 + x_1_2 + x_1_9 + x_3_5 + x_3_7 + x_3_8 + x_4_5 + x_4_6 + x_4_9 + x_5_6 + x_5_7 + x_6_7 + x_7_8 = 9




Binary

x_0_1 x_0_2 x_0_3 x_0_5 x_1_2 x_1_9 x_3_5 x_3_7 x_3_8 x_4_5 x_4_6 x_4_9 x_5_6 x_5_7 x_6_7 x_7_8

 


End
