Minimize

z1_0_1 + z1_0_2 + z1_0_3 + z1_0_4 + z1_1_2 + z1_1_3 + z1_1_4 + z1_2_3 + z1_2_4 + z1_3_4


Subject To

a0: z1_0_1 - x_0 + x_1 >= 0
a1: z1_0_2 - x_0 + x_2 >= 0
a2: z1_0_3 - x_0 + x_3 >= 0
a3: z1_0_4 - x_0 + x_4 >= 0
a4: z1_1_2 - x_1 + x_2 >= 0
a5: z1_1_3 - x_1 + x_3 >= 0
a6: z1_1_4 - x_1 + x_4 >= 0
a7: z1_2_3 - x_2 + x_3 >= 0
a8: z1_2_4 - x_2 + x_4 >= 0
a9: z1_3_4 - x_3 + x_4 >= 0
b0: z1_0_1 + x_0 - x_1 >= 0
b1: z1_0_2 + x_0 - x_2 >= 0
b2: z1_0_3 + x_0 - x_3 >= 0
b3: z1_0_4 + x_0 - x_4 >= 0
b4: z1_1_2 + x_1 - x_2 >= 0
b5: z1_1_3 + x_1 - x_3 >= 0
b6: z1_1_4 + x_1 - x_4 >= 0
b7: z1_2_3 + x_2 - x_3 >= 0
b8: z1_2_4 + x_2 - x_4 >= 0
b9: z1_3_4 + x_3 - x_4 >= 0
c0: z1_0_1 >= 1.0
c1: z1_0_2 >= 1.0
c2: z1_0_3 >= 1.0
c3: z1_0_4 >= 1.0
c4: z1_1_2 >= 1.0
c5: z1_1_3 >= 1.0
c6: z1_1_4 >= 1.0
c7: z1_2_3 >= 1.0
c8: z1_2_4 >= 1.0
c9: z1_3_4 >= 1.0



Bounds


x_0 <= 4
x_1 <= 4
x_2 <= 4
x_3 <= 4
x_4 <= 4




General

 x_0 x_1 x_2 x_3 x_4



End
