Minimize

x_0


Subject To


z0: x_0 - x_1 - y$_0 = 0
z1: y$_1 >= 1
z2: x_0 - x_2 - y$_2 = 0
z3: y$_3 >= 1
z4: x_0 - x_3 - y$_4 = 0
z5: y$_5 >= 1
z6: x_0 - x_4 - y$_6 = 0
z7: y$_7 >= 1
z8: x_0 - x_5 - y$_8 = 0
z9: y$_9 >= 1
z10: x_0 - x_6 - y$_10 = 0
z11: y$_11 >= 1
z12: x_0 - x_7 - y$_12 = 0
z13: y$_13 >= 1
z14: x_0 - x_8 - y$_14 = 0
z15: y$_15 >= 1
z16: x_0 - x_9 - y$_16 = 0
z17: y$_17 >= 1
z18: x_0 - x_10 - y$_18 = 0
z19: y$_19 >= 1
z20: x_0 - x_11 - y$_20 = 0
z21: y$_21 >= 1
z22: x_0 - x_12 - y$_22 = 0
z23: y$_23 >= 1
z24: x_0 - x_13 - y$_24 = 0
z25: y$_25 >= 1
z26: x_0 - x_14 - y$_26 = 0
z27: y$_27 >= 1
z28: x_0 - x_15 - y$_28 = 0
z29: y$_29 >= 1
z30: x_0 - x_16 - y$_30 = 0
z31: y$_31 >= 1
z32: x_0 - x_17 - y$_32 = 0
z33: y$_33 >= 1
z34: x_0 - x_18 - y$_34 = 0
z35: y$_35 >= 1
z36: x_0 - x_19 - y$_36 = 0
z37: y$_37 >= 1
z38: x_1 - x_2 - y$_38 = 0
z39: y$_39 >= 1
z40: x_1 - x_3 - y$_40 = 0
z41: y$_41 >= 1
z42: x_1 - x_4 - y$_42 = 0
z43: y$_43 >= 1
z44: x_1 - x_5 - y$_44 = 0
z45: y$_45 >= 1
z46: x_1 - x_6 - y$_46 = 0
z47: y$_47 >= 1
z48: x_1 - x_7 - y$_48 = 0
z49: y$_49 >= 1
z50: x_1 - x_8 - y$_50 = 0
z51: y$_51 >= 1
z52: x_1 - x_9 - y$_52 = 0
z53: y$_53 >= 1
z54: x_1 - x_10 - y$_54 = 0
z55: y$_55 >= 1
z56: x_1 - x_11 - y$_56 = 0
z57: y$_57 >= 1
z58: x_1 - x_12 - y$_58 = 0
z59: y$_59 >= 1
z60: x_1 - x_13 - y$_60 = 0
z61: y$_61 >= 1
z62: x_1 - x_14 - y$_62 = 0
z63: y$_63 >= 1
z64: x_1 - x_15 - y$_64 = 0
z65: y$_65 >= 1
z66: x_1 - x_16 - y$_66 = 0
z67: y$_67 >= 1
z68: x_1 - x_17 - y$_68 = 0
z69: y$_69 >= 1
z70: x_1 - x_18 - y$_70 = 0
z71: y$_71 >= 1
z72: x_1 - x_19 - y$_72 = 0
z73: y$_73 >= 1
z74: x_2 - x_3 - y$_74 = 0
z75: y$_75 >= 1
z76: x_2 - x_4 - y$_76 = 0
z77: y$_77 >= 1
z78: x_2 - x_5 - y$_78 = 0
z79: y$_79 >= 1
z80: x_2 - x_6 - y$_80 = 0
z81: y$_81 >= 1
z82: x_2 - x_7 - y$_82 = 0
z83: y$_83 >= 1
z84: x_2 - x_8 - y$_84 = 0
z85: y$_85 >= 1
z86: x_2 - x_9 - y$_86 = 0
z87: y$_87 >= 1
z88: x_2 - x_10 - y$_88 = 0
z89: y$_89 >= 1
z90: x_2 - x_11 - y$_90 = 0
z91: y$_91 >= 1
z92: x_2 - x_12 - y$_92 = 0
z93: y$_93 >= 1
z94: x_2 - x_13 - y$_94 = 0
z95: y$_95 >= 1
z96: x_2 - x_14 - y$_96 = 0
z97: y$_97 >= 1
z98: x_2 - x_15 - y$_98 = 0
z99: y$_99 >= 1
z100: x_2 - x_16 - y$_100 = 0
z101: y$_101 >= 1
z102: x_2 - x_17 - y$_102 = 0
z103: y$_103 >= 1
z104: x_2 - x_18 - y$_104 = 0
z105: y$_105 >= 1
z106: x_2 - x_19 - y$_106 = 0
z107: y$_107 >= 1
z108: x_3 - x_4 - y$_108 = 0
z109: y$_109 >= 1
z110: x_3 - x_5 - y$_110 = 0
z111: y$_111 >= 1
z112: x_3 - x_6 - y$_112 = 0
z113: y$_113 >= 1
z114: x_3 - x_7 - y$_114 = 0
z115: y$_115 >= 1
z116: x_3 - x_8 - y$_116 = 0
z117: y$_117 >= 1
z118: x_3 - x_9 - y$_118 = 0
z119: y$_119 >= 1
z120: x_3 - x_10 - y$_120 = 0
z121: y$_121 >= 1
z122: x_3 - x_11 - y$_122 = 0
z123: y$_123 >= 1
z124: x_3 - x_12 - y$_124 = 0
z125: y$_125 >= 1
z126: x_3 - x_13 - y$_126 = 0
z127: y$_127 >= 1
z128: x_3 - x_14 - y$_128 = 0
z129: y$_129 >= 1
z130: x_3 - x_15 - y$_130 = 0
z131: y$_131 >= 1
z132: x_3 - x_16 - y$_132 = 0
z133: y$_133 >= 1
z134: x_3 - x_17 - y$_134 = 0
z135: y$_135 >= 1
z136: x_3 - x_18 - y$_136 = 0
z137: y$_137 >= 1
z138: x_3 - x_19 - y$_138 = 0
z139: y$_139 >= 1
z140: x_4 - x_5 - y$_140 = 0
z141: y$_141 >= 1
z142: x_4 - x_6 - y$_142 = 0
z143: y$_143 >= 1
z144: x_4 - x_7 - y$_144 = 0
z145: y$_145 >= 1
z146: x_4 - x_8 - y$_146 = 0
z147: y$_147 >= 1
z148: x_4 - x_9 - y$_148 = 0
z149: y$_149 >= 1
z150: x_4 - x_10 - y$_150 = 0
z151: y$_151 >= 1
z152: x_4 - x_11 - y$_152 = 0
z153: y$_153 >= 1
z154: x_4 - x_12 - y$_154 = 0
z155: y$_155 >= 1
z156: x_4 - x_13 - y$_156 = 0
z157: y$_157 >= 1
z158: x_4 - x_14 - y$_158 = 0
z159: y$_159 >= 1
z160: x_4 - x_15 - y$_160 = 0
z161: y$_161 >= 1
z162: x_4 - x_16 - y$_162 = 0
z163: y$_163 >= 1
z164: x_4 - x_17 - y$_164 = 0
z165: y$_165 >= 1
z166: x_4 - x_18 - y$_166 = 0
z167: y$_167 >= 1
z168: x_4 - x_19 - y$_168 = 0
z169: y$_169 >= 1
z170: x_5 - x_6 - y$_170 = 0
z171: y$_171 >= 1
z172: x_5 - x_7 - y$_172 = 0
z173: y$_173 >= 1
z174: x_5 - x_8 - y$_174 = 0
z175: y$_175 >= 1
z176: x_5 - x_9 - y$_176 = 0
z177: y$_177 >= 1
z178: x_5 - x_10 - y$_178 = 0
z179: y$_179 >= 1
z180: x_5 - x_11 - y$_180 = 0
z181: y$_181 >= 1
z182: x_5 - x_12 - y$_182 = 0
z183: y$_183 >= 1
z184: x_5 - x_13 - y$_184 = 0
z185: y$_185 >= 1
z186: x_5 - x_14 - y$_186 = 0
z187: y$_187 >= 1
z188: x_5 - x_15 - y$_188 = 0
z189: y$_189 >= 1
z190: x_5 - x_16 - y$_190 = 0
z191: y$_191 >= 1
z192: x_5 - x_17 - y$_192 = 0
z193: y$_193 >= 1
z194: x_5 - x_18 - y$_194 = 0
z195: y$_195 >= 1
z196: x_5 - x_19 - y$_196 = 0
z197: y$_197 >= 1
z198: x_6 - x_7 - y$_198 = 0
z199: y$_199 >= 1
z200: x_6 - x_8 - y$_200 = 0
z201: y$_201 >= 1
z202: x_6 - x_9 - y$_202 = 0
z203: y$_203 >= 1
z204: x_6 - x_10 - y$_204 = 0
z205: y$_205 >= 1
z206: x_6 - x_11 - y$_206 = 0
z207: y$_207 >= 1
z208: x_6 - x_12 - y$_208 = 0
z209: y$_209 >= 1
z210: x_6 - x_13 - y$_210 = 0
z211: y$_211 >= 1
z212: x_6 - x_14 - y$_212 = 0
z213: y$_213 >= 1
z214: x_6 - x_15 - y$_214 = 0
z215: y$_215 >= 1
z216: x_6 - x_16 - y$_216 = 0
z217: y$_217 >= 1
z218: x_6 - x_17 - y$_218 = 0
z219: y$_219 >= 1
z220: x_6 - x_18 - y$_220 = 0
z221: y$_221 >= 1
z222: x_6 - x_19 - y$_222 = 0
z223: y$_223 >= 1
z224: x_7 - x_8 - y$_224 = 0
z225: y$_225 >= 1
z226: x_7 - x_9 - y$_226 = 0
z227: y$_227 >= 1
z228: x_7 - x_10 - y$_228 = 0
z229: y$_229 >= 1
z230: x_7 - x_11 - y$_230 = 0
z231: y$_231 >= 1
z232: x_7 - x_12 - y$_232 = 0
z233: y$_233 >= 1
z234: x_7 - x_13 - y$_234 = 0
z235: y$_235 >= 1
z236: x_7 - x_14 - y$_236 = 0
z237: y$_237 >= 1
z238: x_7 - x_15 - y$_238 = 0
z239: y$_239 >= 1
z240: x_7 - x_16 - y$_240 = 0
z241: y$_241 >= 1
z242: x_7 - x_17 - y$_242 = 0
z243: y$_243 >= 1
z244: x_7 - x_18 - y$_244 = 0
z245: y$_245 >= 1
z246: x_7 - x_19 - y$_246 = 0
z247: y$_247 >= 1
z248: x_8 - x_9 - y$_248 = 0
z249: y$_249 >= 1
z250: x_8 - x_10 - y$_250 = 0
z251: y$_251 >= 1
z252: x_8 - x_11 - y$_252 = 0
z253: y$_253 >= 1
z254: x_8 - x_12 - y$_254 = 0
z255: y$_255 >= 1
z256: x_8 - x_13 - y$_256 = 0
z257: y$_257 >= 1
z258: x_8 - x_14 - y$_258 = 0
z259: y$_259 >= 1
z260: x_8 - x_15 - y$_260 = 0
z261: y$_261 >= 1
z262: x_8 - x_16 - y$_262 = 0
z263: y$_263 >= 1
z264: x_8 - x_17 - y$_264 = 0
z265: y$_265 >= 1
z266: x_8 - x_18 - y$_266 = 0
z267: y$_267 >= 1
z268: x_8 - x_19 - y$_268 = 0
z269: y$_269 >= 1
z270: x_9 - x_10 - y$_270 = 0
z271: y$_271 >= 1
z272: x_9 - x_11 - y$_272 = 0
z273: y$_273 >= 1
z274: x_9 - x_12 - y$_274 = 0
z275: y$_275 >= 1
z276: x_9 - x_13 - y$_276 = 0
z277: y$_277 >= 1
z278: x_9 - x_14 - y$_278 = 0
z279: y$_279 >= 1
z280: x_9 - x_15 - y$_280 = 0
z281: y$_281 >= 1
z282: x_9 - x_16 - y$_282 = 0
z283: y$_283 >= 1
z284: x_9 - x_17 - y$_284 = 0
z285: y$_285 >= 1
z286: x_9 - x_18 - y$_286 = 0
z287: y$_287 >= 1
z288: x_9 - x_19 - y$_288 = 0
z289: y$_289 >= 1
z290: x_10 - x_11 - y$_290 = 0
z291: y$_291 >= 1
z292: x_10 - x_12 - y$_292 = 0
z293: y$_293 >= 1
z294: x_10 - x_13 - y$_294 = 0
z295: y$_295 >= 1
z296: x_10 - x_14 - y$_296 = 0
z297: y$_297 >= 1
z298: x_10 - x_15 - y$_298 = 0
z299: y$_299 >= 1
z300: x_10 - x_16 - y$_300 = 0
z301: y$_301 >= 1
z302: x_10 - x_17 - y$_302 = 0
z303: y$_303 >= 1
z304: x_10 - x_18 - y$_304 = 0
z305: y$_305 >= 1
z306: x_10 - x_19 - y$_306 = 0
z307: y$_307 >= 1
z308: x_11 - x_12 - y$_308 = 0
z309: y$_309 >= 1
z310: x_11 - x_13 - y$_310 = 0
z311: y$_311 >= 1
z312: x_11 - x_14 - y$_312 = 0
z313: y$_313 >= 1
z314: x_11 - x_15 - y$_314 = 0
z315: y$_315 >= 1
z316: x_11 - x_16 - y$_316 = 0
z317: y$_317 >= 1
z318: x_11 - x_17 - y$_318 = 0
z319: y$_319 >= 1
z320: x_11 - x_18 - y$_320 = 0
z321: y$_321 >= 1
z322: x_11 - x_19 - y$_322 = 0
z323: y$_323 >= 1
z324: x_12 - x_13 - y$_324 = 0
z325: y$_325 >= 1
z326: x_12 - x_14 - y$_326 = 0
z327: y$_327 >= 1
z328: x_12 - x_15 - y$_328 = 0
z329: y$_329 >= 1
z330: x_12 - x_16 - y$_330 = 0
z331: y$_331 >= 1
z332: x_12 - x_17 - y$_332 = 0
z333: y$_333 >= 1
z334: x_12 - x_18 - y$_334 = 0
z335: y$_335 >= 1
z336: x_12 - x_19 - y$_336 = 0
z337: y$_337 >= 1
z338: x_13 - x_14 - y$_338 = 0
z339: y$_339 >= 1
z340: x_13 - x_15 - y$_340 = 0
z341: y$_341 >= 1
z342: x_13 - x_16 - y$_342 = 0
z343: y$_343 >= 1
z344: x_13 - x_17 - y$_344 = 0
z345: y$_345 >= 1
z346: x_13 - x_18 - y$_346 = 0
z347: y$_347 >= 1
z348: x_13 - x_19 - y$_348 = 0
z349: y$_349 >= 1
z350: x_14 - x_15 - y$_350 = 0
z351: y$_351 >= 1
z352: x_14 - x_16 - y$_352 = 0
z353: y$_353 >= 1
z354: x_14 - x_17 - y$_354 = 0
z355: y$_355 >= 1
z356: x_14 - x_18 - y$_356 = 0
z357: y$_357 >= 1
z358: x_14 - x_19 - y$_358 = 0
z359: y$_359 >= 1
z360: x_15 - x_16 - y$_360 = 0
z361: y$_361 >= 1
z362: x_15 - x_17 - y$_362 = 0
z363: y$_363 >= 1
z364: x_15 - x_18 - y$_364 = 0
z365: y$_365 >= 1
z366: x_15 - x_19 - y$_366 = 0
z367: y$_367 >= 1
z368: x_16 - x_17 - y$_368 = 0
z369: y$_369 >= 1
z370: x_16 - x_18 - y$_370 = 0
z371: y$_371 >= 1
z372: x_16 - x_19 - y$_372 = 0
z373: y$_373 >= 1
z374: x_17 - x_18 - y$_374 = 0
z375: y$_375 >= 1
z376: x_17 - x_19 - y$_376 = 0
z377: y$_377 >= 1
z378: x_18 - x_19 - y$_378 = 0
z379: y$_379 >= 1
z380: x_0  - x_1 - y$_380 = 1
z381: y$_381 >= 1
z382: x_0  - x_2 - y$_382 = 2
z383: y$_383 >= 1
z384: x_0  - x_3 - y$_384 = 3
z385: y$_385 >= 1
z386: x_0  - x_4 - y$_386 = 4
z387: y$_387 >= 1
z388: x_0  - x_5 - y$_388 = 5
z389: y$_389 >= 1
z390: x_0  - x_6 - y$_390 = 6
z391: y$_391 >= 1
z392: x_0  - x_7 - y$_392 = 7
z393: y$_393 >= 1
z394: x_0  - x_8 - y$_394 = 8
z395: y$_395 >= 1
z396: x_0  - x_9 - y$_396 = 9
z397: y$_397 >= 1
z398: x_0  - x_10 - y$_398 = 10
z399: y$_399 >= 1
z400: x_0  - x_11 - y$_400 = 11
z401: y$_401 >= 1
z402: x_0  - x_12 - y$_402 = 12
z403: y$_403 >= 1
z404: x_0  - x_13 - y$_404 = 13
z405: y$_405 >= 1
z406: x_0  - x_14 - y$_406 = 14
z407: y$_407 >= 1
z408: x_0  - x_15 - y$_408 = 15
z409: y$_409 >= 1
z410: x_0  - x_16 - y$_410 = 16
z411: y$_411 >= 1
z412: x_0  - x_17 - y$_412 = 17
z413: y$_413 >= 1
z414: x_0  - x_18 - y$_414 = 18
z415: y$_415 >= 1
z416: x_0  - x_19 - y$_416 = 19
z417: y$_417 >= 1
z418: x_1  - x_2 - y$_418 = 1
z419: y$_419 >= 1
z420: x_1  - x_3 - y$_420 = 2
z421: y$_421 >= 1
z422: x_1  - x_4 - y$_422 = 3
z423: y$_423 >= 1
z424: x_1  - x_5 - y$_424 = 4
z425: y$_425 >= 1
z426: x_1  - x_6 - y$_426 = 5
z427: y$_427 >= 1
z428: x_1  - x_7 - y$_428 = 6
z429: y$_429 >= 1
z430: x_1  - x_8 - y$_430 = 7
z431: y$_431 >= 1
z432: x_1  - x_9 - y$_432 = 8
z433: y$_433 >= 1
z434: x_1  - x_10 - y$_434 = 9
z435: y$_435 >= 1
z436: x_1  - x_11 - y$_436 = 10
z437: y$_437 >= 1
z438: x_1  - x_12 - y$_438 = 11
z439: y$_439 >= 1
z440: x_1  - x_13 - y$_440 = 12
z441: y$_441 >= 1
z442: x_1  - x_14 - y$_442 = 13
z443: y$_443 >= 1
z444: x_1  - x_15 - y$_444 = 14
z445: y$_445 >= 1
z446: x_1  - x_16 - y$_446 = 15
z447: y$_447 >= 1
z448: x_1  - x_17 - y$_448 = 16
z449: y$_449 >= 1
z450: x_1  - x_18 - y$_450 = 17
z451: y$_451 >= 1
z452: x_1  - x_19 - y$_452 = 18
z453: y$_453 >= 1
z454: x_2  - x_3 - y$_454 = 1
z455: y$_455 >= 1
z456: x_2  - x_4 - y$_456 = 2
z457: y$_457 >= 1
z458: x_2  - x_5 - y$_458 = 3
z459: y$_459 >= 1
z460: x_2  - x_6 - y$_460 = 4
z461: y$_461 >= 1
z462: x_2  - x_7 - y$_462 = 5
z463: y$_463 >= 1
z464: x_2  - x_8 - y$_464 = 6
z465: y$_465 >= 1
z466: x_2  - x_9 - y$_466 = 7
z467: y$_467 >= 1
z468: x_2  - x_10 - y$_468 = 8
z469: y$_469 >= 1
z470: x_2  - x_11 - y$_470 = 9
z471: y$_471 >= 1
z472: x_2  - x_12 - y$_472 = 10
z473: y$_473 >= 1
z474: x_2  - x_13 - y$_474 = 11
z475: y$_475 >= 1
z476: x_2  - x_14 - y$_476 = 12
z477: y$_477 >= 1
z478: x_2  - x_15 - y$_478 = 13
z479: y$_479 >= 1
z480: x_2  - x_16 - y$_480 = 14
z481: y$_481 >= 1
z482: x_2  - x_17 - y$_482 = 15
z483: y$_483 >= 1
z484: x_2  - x_18 - y$_484 = 16
z485: y$_485 >= 1
z486: x_2  - x_19 - y$_486 = 17
z487: y$_487 >= 1
z488: x_3  - x_4 - y$_488 = 1
z489: y$_489 >= 1
z490: x_3  - x_5 - y$_490 = 2
z491: y$_491 >= 1
z492: x_3  - x_6 - y$_492 = 3
z493: y$_493 >= 1
z494: x_3  - x_7 - y$_494 = 4
z495: y$_495 >= 1
z496: x_3  - x_8 - y$_496 = 5
z497: y$_497 >= 1
z498: x_3  - x_9 - y$_498 = 6
z499: y$_499 >= 1
z500: x_3  - x_10 - y$_500 = 7
z501: y$_501 >= 1
z502: x_3  - x_11 - y$_502 = 8
z503: y$_503 >= 1
z504: x_3  - x_12 - y$_504 = 9
z505: y$_505 >= 1
z506: x_3  - x_13 - y$_506 = 10
z507: y$_507 >= 1
z508: x_3  - x_14 - y$_508 = 11
z509: y$_509 >= 1
z510: x_3  - x_15 - y$_510 = 12
z511: y$_511 >= 1
z512: x_3  - x_16 - y$_512 = 13
z513: y$_513 >= 1
z514: x_3  - x_17 - y$_514 = 14
z515: y$_515 >= 1
z516: x_3  - x_18 - y$_516 = 15
z517: y$_517 >= 1
z518: x_3  - x_19 - y$_518 = 16
z519: y$_519 >= 1
z520: x_4  - x_5 - y$_520 = 1
z521: y$_521 >= 1
z522: x_4  - x_6 - y$_522 = 2
z523: y$_523 >= 1
z524: x_4  - x_7 - y$_524 = 3
z525: y$_525 >= 1
z526: x_4  - x_8 - y$_526 = 4
z527: y$_527 >= 1
z528: x_4  - x_9 - y$_528 = 5
z529: y$_529 >= 1
z530: x_4  - x_10 - y$_530 = 6
z531: y$_531 >= 1
z532: x_4  - x_11 - y$_532 = 7
z533: y$_533 >= 1
z534: x_4  - x_12 - y$_534 = 8
z535: y$_535 >= 1
z536: x_4  - x_13 - y$_536 = 9
z537: y$_537 >= 1
z538: x_4  - x_14 - y$_538 = 10
z539: y$_539 >= 1
z540: x_4  - x_15 - y$_540 = 11
z541: y$_541 >= 1
z542: x_4  - x_16 - y$_542 = 12
z543: y$_543 >= 1
z544: x_4  - x_17 - y$_544 = 13
z545: y$_545 >= 1
z546: x_4  - x_18 - y$_546 = 14
z547: y$_547 >= 1
z548: x_4  - x_19 - y$_548 = 15
z549: y$_549 >= 1
z550: x_5  - x_6 - y$_550 = 1
z551: y$_551 >= 1
z552: x_5  - x_7 - y$_552 = 2
z553: y$_553 >= 1
z554: x_5  - x_8 - y$_554 = 3
z555: y$_555 >= 1
z556: x_5  - x_9 - y$_556 = 4
z557: y$_557 >= 1
z558: x_5  - x_10 - y$_558 = 5
z559: y$_559 >= 1
z560: x_5  - x_11 - y$_560 = 6
z561: y$_561 >= 1
z562: x_5  - x_12 - y$_562 = 7
z563: y$_563 >= 1
z564: x_5  - x_13 - y$_564 = 8
z565: y$_565 >= 1
z566: x_5  - x_14 - y$_566 = 9
z567: y$_567 >= 1
z568: x_5  - x_15 - y$_568 = 10
z569: y$_569 >= 1
z570: x_5  - x_16 - y$_570 = 11
z571: y$_571 >= 1
z572: x_5  - x_17 - y$_572 = 12
z573: y$_573 >= 1
z574: x_5  - x_18 - y$_574 = 13
z575: y$_575 >= 1
z576: x_5  - x_19 - y$_576 = 14
z577: y$_577 >= 1
z578: x_6  - x_7 - y$_578 = 1
z579: y$_579 >= 1
z580: x_6  - x_8 - y$_580 = 2
z581: y$_581 >= 1
z582: x_6  - x_9 - y$_582 = 3
z583: y$_583 >= 1
z584: x_6  - x_10 - y$_584 = 4
z585: y$_585 >= 1
z586: x_6  - x_11 - y$_586 = 5
z587: y$_587 >= 1
z588: x_6  - x_12 - y$_588 = 6
z589: y$_589 >= 1
z590: x_6  - x_13 - y$_590 = 7
z591: y$_591 >= 1
z592: x_6  - x_14 - y$_592 = 8
z593: y$_593 >= 1
z594: x_6  - x_15 - y$_594 = 9
z595: y$_595 >= 1
z596: x_6  - x_16 - y$_596 = 10
z597: y$_597 >= 1
z598: x_6  - x_17 - y$_598 = 11
z599: y$_599 >= 1
z600: x_6  - x_18 - y$_600 = 12
z601: y$_601 >= 1
z602: x_6  - x_19 - y$_602 = 13
z603: y$_603 >= 1
z604: x_7  - x_8 - y$_604 = 1
z605: y$_605 >= 1
z606: x_7  - x_9 - y$_606 = 2
z607: y$_607 >= 1
z608: x_7  - x_10 - y$_608 = 3
z609: y$_609 >= 1
z610: x_7  - x_11 - y$_610 = 4
z611: y$_611 >= 1
z612: x_7  - x_12 - y$_612 = 5
z613: y$_613 >= 1
z614: x_7  - x_13 - y$_614 = 6
z615: y$_615 >= 1
z616: x_7  - x_14 - y$_616 = 7
z617: y$_617 >= 1
z618: x_7  - x_15 - y$_618 = 8
z619: y$_619 >= 1
z620: x_7  - x_16 - y$_620 = 9
z621: y$_621 >= 1
z622: x_7  - x_17 - y$_622 = 10
z623: y$_623 >= 1
z624: x_7  - x_18 - y$_624 = 11
z625: y$_625 >= 1
z626: x_7  - x_19 - y$_626 = 12
z627: y$_627 >= 1
z628: x_8  - x_9 - y$_628 = 1
z629: y$_629 >= 1
z630: x_8  - x_10 - y$_630 = 2
z631: y$_631 >= 1
z632: x_8  - x_11 - y$_632 = 3
z633: y$_633 >= 1
z634: x_8  - x_12 - y$_634 = 4
z635: y$_635 >= 1
z636: x_8  - x_13 - y$_636 = 5
z637: y$_637 >= 1
z638: x_8  - x_14 - y$_638 = 6
z639: y$_639 >= 1
z640: x_8  - x_15 - y$_640 = 7
z641: y$_641 >= 1
z642: x_8  - x_16 - y$_642 = 8
z643: y$_643 >= 1
z644: x_8  - x_17 - y$_644 = 9
z645: y$_645 >= 1
z646: x_8  - x_18 - y$_646 = 10
z647: y$_647 >= 1
z648: x_8  - x_19 - y$_648 = 11
z649: y$_649 >= 1
z650: x_9  - x_10 - y$_650 = 1
z651: y$_651 >= 1
z652: x_9  - x_11 - y$_652 = 2
z653: y$_653 >= 1
z654: x_9  - x_12 - y$_654 = 3
z655: y$_655 >= 1
z656: x_9  - x_13 - y$_656 = 4
z657: y$_657 >= 1
z658: x_9  - x_14 - y$_658 = 5
z659: y$_659 >= 1
z660: x_9  - x_15 - y$_660 = 6
z661: y$_661 >= 1
z662: x_9  - x_16 - y$_662 = 7
z663: y$_663 >= 1
z664: x_9  - x_17 - y$_664 = 8
z665: y$_665 >= 1
z666: x_9  - x_18 - y$_666 = 9
z667: y$_667 >= 1
z668: x_9  - x_19 - y$_668 = 10
z669: y$_669 >= 1
z670: x_10  - x_11 - y$_670 = 1
z671: y$_671 >= 1
z672: x_10  - x_12 - y$_672 = 2
z673: y$_673 >= 1
z674: x_10  - x_13 - y$_674 = 3
z675: y$_675 >= 1
z676: x_10  - x_14 - y$_676 = 4
z677: y$_677 >= 1
z678: x_10  - x_15 - y$_678 = 5
z679: y$_679 >= 1
z680: x_10  - x_16 - y$_680 = 6
z681: y$_681 >= 1
z682: x_10  - x_17 - y$_682 = 7
z683: y$_683 >= 1
z684: x_10  - x_18 - y$_684 = 8
z685: y$_685 >= 1
z686: x_10  - x_19 - y$_686 = 9
z687: y$_687 >= 1
z688: x_11  - x_12 - y$_688 = 1
z689: y$_689 >= 1
z690: x_11  - x_13 - y$_690 = 2
z691: y$_691 >= 1
z692: x_11  - x_14 - y$_692 = 3
z693: y$_693 >= 1
z694: x_11  - x_15 - y$_694 = 4
z695: y$_695 >= 1
z696: x_11  - x_16 - y$_696 = 5
z697: y$_697 >= 1
z698: x_11  - x_17 - y$_698 = 6
z699: y$_699 >= 1
z700: x_11  - x_18 - y$_700 = 7
z701: y$_701 >= 1
z702: x_11  - x_19 - y$_702 = 8
z703: y$_703 >= 1
z704: x_12  - x_13 - y$_704 = 1
z705: y$_705 >= 1
z706: x_12  - x_14 - y$_706 = 2
z707: y$_707 >= 1
z708: x_12  - x_15 - y$_708 = 3
z709: y$_709 >= 1
z710: x_12  - x_16 - y$_710 = 4
z711: y$_711 >= 1
z712: x_12  - x_17 - y$_712 = 5
z713: y$_713 >= 1
z714: x_12  - x_18 - y$_714 = 6
z715: y$_715 >= 1
z716: x_12  - x_19 - y$_716 = 7
z717: y$_717 >= 1
z718: x_13  - x_14 - y$_718 = 1
z719: y$_719 >= 1
z720: x_13  - x_15 - y$_720 = 2
z721: y$_721 >= 1
z722: x_13  - x_16 - y$_722 = 3
z723: y$_723 >= 1
z724: x_13  - x_17 - y$_724 = 4
z725: y$_725 >= 1
z726: x_13  - x_18 - y$_726 = 5
z727: y$_727 >= 1
z728: x_13  - x_19 - y$_728 = 6
z729: y$_729 >= 1
z730: x_14  - x_15 - y$_730 = 1
z731: y$_731 >= 1
z732: x_14  - x_16 - y$_732 = 2
z733: y$_733 >= 1
z734: x_14  - x_17 - y$_734 = 3
z735: y$_735 >= 1
z736: x_14  - x_18 - y$_736 = 4
z737: y$_737 >= 1
z738: x_14  - x_19 - y$_738 = 5
z739: y$_739 >= 1
z740: x_15  - x_16 - y$_740 = 1
z741: y$_741 >= 1
z742: x_15  - x_17 - y$_742 = 2
z743: y$_743 >= 1
z744: x_15  - x_18 - y$_744 = 3
z745: y$_745 >= 1
z746: x_15  - x_19 - y$_746 = 4
z747: y$_747 >= 1
z748: x_16  - x_17 - y$_748 = 1
z749: y$_749 >= 1
z750: x_16  - x_18 - y$_750 = 2
z751: y$_751 >= 1
z752: x_16  - x_19 - y$_752 = 3
z753: y$_753 >= 1
z754: x_17  - x_18 - y$_754 = 1
z755: y$_755 >= 1
z756: x_17  - x_19 - y$_756 = 2
z757: y$_757 >= 1
z758: x_18  - x_19 - y$_758 = 1
z759: y$_759 >= 1
z760: x_0  - x_1 - y$_760 = -1
z761: y$_761 >= 1
z762: x_0  - x_2 - y$_762 = -2
z763: y$_763 >= 1
z764: x_0  - x_3 - y$_764 = -3
z765: y$_765 >= 1
z766: x_0  - x_4 - y$_766 = -4
z767: y$_767 >= 1
z768: x_0  - x_5 - y$_768 = -5
z769: y$_769 >= 1
z770: x_0  - x_6 - y$_770 = -6
z771: y$_771 >= 1
z772: x_0  - x_7 - y$_772 = -7
z773: y$_773 >= 1
z774: x_0  - x_8 - y$_774 = -8
z775: y$_775 >= 1
z776: x_0  - x_9 - y$_776 = -9
z777: y$_777 >= 1
z778: x_0  - x_10 - y$_778 = -10
z779: y$_779 >= 1
z780: x_0  - x_11 - y$_780 = -11
z781: y$_781 >= 1
z782: x_0  - x_12 - y$_782 = -12
z783: y$_783 >= 1
z784: x_0  - x_13 - y$_784 = -13
z785: y$_785 >= 1
z786: x_0  - x_14 - y$_786 = -14
z787: y$_787 >= 1
z788: x_0  - x_15 - y$_788 = -15
z789: y$_789 >= 1
z790: x_0  - x_16 - y$_790 = -16
z791: y$_791 >= 1
z792: x_0  - x_17 - y$_792 = -17
z793: y$_793 >= 1
z794: x_0  - x_18 - y$_794 = -18
z795: y$_795 >= 1
z796: x_0  - x_19 - y$_796 = -19
z797: y$_797 >= 1
z798: x_1  - x_2 - y$_798 = -1
z799: y$_799 >= 1
z800: x_1  - x_3 - y$_800 = -2
z801: y$_801 >= 1
z802: x_1  - x_4 - y$_802 = -3
z803: y$_803 >= 1
z804: x_1  - x_5 - y$_804 = -4
z805: y$_805 >= 1
z806: x_1  - x_6 - y$_806 = -5
z807: y$_807 >= 1
z808: x_1  - x_7 - y$_808 = -6
z809: y$_809 >= 1
z810: x_1  - x_8 - y$_810 = -7
z811: y$_811 >= 1
z812: x_1  - x_9 - y$_812 = -8
z813: y$_813 >= 1
z814: x_1  - x_10 - y$_814 = -9
z815: y$_815 >= 1
z816: x_1  - x_11 - y$_816 = -10
z817: y$_817 >= 1
z818: x_1  - x_12 - y$_818 = -11
z819: y$_819 >= 1
z820: x_1  - x_13 - y$_820 = -12
z821: y$_821 >= 1
z822: x_1  - x_14 - y$_822 = -13
z823: y$_823 >= 1
z824: x_1  - x_15 - y$_824 = -14
z825: y$_825 >= 1
z826: x_1  - x_16 - y$_826 = -15
z827: y$_827 >= 1
z828: x_1  - x_17 - y$_828 = -16
z829: y$_829 >= 1
z830: x_1  - x_18 - y$_830 = -17
z831: y$_831 >= 1
z832: x_1  - x_19 - y$_832 = -18
z833: y$_833 >= 1
z834: x_2  - x_3 - y$_834 = -1
z835: y$_835 >= 1
z836: x_2  - x_4 - y$_836 = -2
z837: y$_837 >= 1
z838: x_2  - x_5 - y$_838 = -3
z839: y$_839 >= 1
z840: x_2  - x_6 - y$_840 = -4
z841: y$_841 >= 1
z842: x_2  - x_7 - y$_842 = -5
z843: y$_843 >= 1
z844: x_2  - x_8 - y$_844 = -6
z845: y$_845 >= 1
z846: x_2  - x_9 - y$_846 = -7
z847: y$_847 >= 1
z848: x_2  - x_10 - y$_848 = -8
z849: y$_849 >= 1
z850: x_2  - x_11 - y$_850 = -9
z851: y$_851 >= 1
z852: x_2  - x_12 - y$_852 = -10
z853: y$_853 >= 1
z854: x_2  - x_13 - y$_854 = -11
z855: y$_855 >= 1
z856: x_2  - x_14 - y$_856 = -12
z857: y$_857 >= 1
z858: x_2  - x_15 - y$_858 = -13
z859: y$_859 >= 1
z860: x_2  - x_16 - y$_860 = -14
z861: y$_861 >= 1
z862: x_2  - x_17 - y$_862 = -15
z863: y$_863 >= 1
z864: x_2  - x_18 - y$_864 = -16
z865: y$_865 >= 1
z866: x_2  - x_19 - y$_866 = -17
z867: y$_867 >= 1
z868: x_3  - x_4 - y$_868 = -1
z869: y$_869 >= 1
z870: x_3  - x_5 - y$_870 = -2
z871: y$_871 >= 1
z872: x_3  - x_6 - y$_872 = -3
z873: y$_873 >= 1
z874: x_3  - x_7 - y$_874 = -4
z875: y$_875 >= 1
z876: x_3  - x_8 - y$_876 = -5
z877: y$_877 >= 1
z878: x_3  - x_9 - y$_878 = -6
z879: y$_879 >= 1
z880: x_3  - x_10 - y$_880 = -7
z881: y$_881 >= 1
z882: x_3  - x_11 - y$_882 = -8
z883: y$_883 >= 1
z884: x_3  - x_12 - y$_884 = -9
z885: y$_885 >= 1
z886: x_3  - x_13 - y$_886 = -10
z887: y$_887 >= 1
z888: x_3  - x_14 - y$_888 = -11
z889: y$_889 >= 1
z890: x_3  - x_15 - y$_890 = -12
z891: y$_891 >= 1
z892: x_3  - x_16 - y$_892 = -13
z893: y$_893 >= 1
z894: x_3  - x_17 - y$_894 = -14
z895: y$_895 >= 1
z896: x_3  - x_18 - y$_896 = -15
z897: y$_897 >= 1
z898: x_3  - x_19 - y$_898 = -16
z899: y$_899 >= 1
z900: x_4  - x_5 - y$_900 = -1
z901: y$_901 >= 1
z902: x_4  - x_6 - y$_902 = -2
z903: y$_903 >= 1
z904: x_4  - x_7 - y$_904 = -3
z905: y$_905 >= 1
z906: x_4  - x_8 - y$_906 = -4
z907: y$_907 >= 1
z908: x_4  - x_9 - y$_908 = -5
z909: y$_909 >= 1
z910: x_4  - x_10 - y$_910 = -6
z911: y$_911 >= 1
z912: x_4  - x_11 - y$_912 = -7
z913: y$_913 >= 1
z914: x_4  - x_12 - y$_914 = -8
z915: y$_915 >= 1
z916: x_4  - x_13 - y$_916 = -9
z917: y$_917 >= 1
z918: x_4  - x_14 - y$_918 = -10
z919: y$_919 >= 1
z920: x_4  - x_15 - y$_920 = -11
z921: y$_921 >= 1
z922: x_4  - x_16 - y$_922 = -12
z923: y$_923 >= 1
z924: x_4  - x_17 - y$_924 = -13
z925: y$_925 >= 1
z926: x_4  - x_18 - y$_926 = -14
z927: y$_927 >= 1
z928: x_4  - x_19 - y$_928 = -15
z929: y$_929 >= 1
z930: x_5  - x_6 - y$_930 = -1
z931: y$_931 >= 1
z932: x_5  - x_7 - y$_932 = -2
z933: y$_933 >= 1
z934: x_5  - x_8 - y$_934 = -3
z935: y$_935 >= 1
z936: x_5  - x_9 - y$_936 = -4
z937: y$_937 >= 1
z938: x_5  - x_10 - y$_938 = -5
z939: y$_939 >= 1
z940: x_5  - x_11 - y$_940 = -6
z941: y$_941 >= 1
z942: x_5  - x_12 - y$_942 = -7
z943: y$_943 >= 1
z944: x_5  - x_13 - y$_944 = -8
z945: y$_945 >= 1
z946: x_5  - x_14 - y$_946 = -9
z947: y$_947 >= 1
z948: x_5  - x_15 - y$_948 = -10
z949: y$_949 >= 1
z950: x_5  - x_16 - y$_950 = -11
z951: y$_951 >= 1
z952: x_5  - x_17 - y$_952 = -12
z953: y$_953 >= 1
z954: x_5  - x_18 - y$_954 = -13
z955: y$_955 >= 1
z956: x_5  - x_19 - y$_956 = -14
z957: y$_957 >= 1
z958: x_6  - x_7 - y$_958 = -1
z959: y$_959 >= 1
z960: x_6  - x_8 - y$_960 = -2
z961: y$_961 >= 1
z962: x_6  - x_9 - y$_962 = -3
z963: y$_963 >= 1
z964: x_6  - x_10 - y$_964 = -4
z965: y$_965 >= 1
z966: x_6  - x_11 - y$_966 = -5
z967: y$_967 >= 1
z968: x_6  - x_12 - y$_968 = -6
z969: y$_969 >= 1
z970: x_6  - x_13 - y$_970 = -7
z971: y$_971 >= 1
z972: x_6  - x_14 - y$_972 = -8
z973: y$_973 >= 1
z974: x_6  - x_15 - y$_974 = -9
z975: y$_975 >= 1
z976: x_6  - x_16 - y$_976 = -10
z977: y$_977 >= 1
z978: x_6  - x_17 - y$_978 = -11
z979: y$_979 >= 1
z980: x_6  - x_18 - y$_980 = -12
z981: y$_981 >= 1
z982: x_6  - x_19 - y$_982 = -13
z983: y$_983 >= 1
z984: x_7  - x_8 - y$_984 = -1
z985: y$_985 >= 1
z986: x_7  - x_9 - y$_986 = -2
z987: y$_987 >= 1
z988: x_7  - x_10 - y$_988 = -3
z989: y$_989 >= 1
z990: x_7  - x_11 - y$_990 = -4
z991: y$_991 >= 1
z992: x_7  - x_12 - y$_992 = -5
z993: y$_993 >= 1
z994: x_7  - x_13 - y$_994 = -6
z995: y$_995 >= 1
z996: x_7  - x_14 - y$_996 = -7
z997: y$_997 >= 1
z998: x_7  - x_15 - y$_998 = -8
z999: y$_999 >= 1
z1000: x_7  - x_16 - y$_1000 = -9
z1001: y$_1001 >= 1
z1002: x_7  - x_17 - y$_1002 = -10
z1003: y$_1003 >= 1
z1004: x_7  - x_18 - y$_1004 = -11
z1005: y$_1005 >= 1
z1006: x_7  - x_19 - y$_1006 = -12
z1007: y$_1007 >= 1
z1008: x_8  - x_9 - y$_1008 = -1
z1009: y$_1009 >= 1
z1010: x_8  - x_10 - y$_1010 = -2
z1011: y$_1011 >= 1
z1012: x_8  - x_11 - y$_1012 = -3
z1013: y$_1013 >= 1
z1014: x_8  - x_12 - y$_1014 = -4
z1015: y$_1015 >= 1
z1016: x_8  - x_13 - y$_1016 = -5
z1017: y$_1017 >= 1
z1018: x_8  - x_14 - y$_1018 = -6
z1019: y$_1019 >= 1
z1020: x_8  - x_15 - y$_1020 = -7
z1021: y$_1021 >= 1
z1022: x_8  - x_16 - y$_1022 = -8
z1023: y$_1023 >= 1
z1024: x_8  - x_17 - y$_1024 = -9
z1025: y$_1025 >= 1
z1026: x_8  - x_18 - y$_1026 = -10
z1027: y$_1027 >= 1
z1028: x_8  - x_19 - y$_1028 = -11
z1029: y$_1029 >= 1
z1030: x_9  - x_10 - y$_1030 = -1
z1031: y$_1031 >= 1
z1032: x_9  - x_11 - y$_1032 = -2
z1033: y$_1033 >= 1
z1034: x_9  - x_12 - y$_1034 = -3
z1035: y$_1035 >= 1
z1036: x_9  - x_13 - y$_1036 = -4
z1037: y$_1037 >= 1
z1038: x_9  - x_14 - y$_1038 = -5
z1039: y$_1039 >= 1
z1040: x_9  - x_15 - y$_1040 = -6
z1041: y$_1041 >= 1
z1042: x_9  - x_16 - y$_1042 = -7
z1043: y$_1043 >= 1
z1044: x_9  - x_17 - y$_1044 = -8
z1045: y$_1045 >= 1
z1046: x_9  - x_18 - y$_1046 = -9
z1047: y$_1047 >= 1
z1048: x_9  - x_19 - y$_1048 = -10
z1049: y$_1049 >= 1
z1050: x_10  - x_11 - y$_1050 = -1
z1051: y$_1051 >= 1
z1052: x_10  - x_12 - y$_1052 = -2
z1053: y$_1053 >= 1
z1054: x_10  - x_13 - y$_1054 = -3
z1055: y$_1055 >= 1
z1056: x_10  - x_14 - y$_1056 = -4
z1057: y$_1057 >= 1
z1058: x_10  - x_15 - y$_1058 = -5
z1059: y$_1059 >= 1
z1060: x_10  - x_16 - y$_1060 = -6
z1061: y$_1061 >= 1
z1062: x_10  - x_17 - y$_1062 = -7
z1063: y$_1063 >= 1
z1064: x_10  - x_18 - y$_1064 = -8
z1065: y$_1065 >= 1
z1066: x_10  - x_19 - y$_1066 = -9
z1067: y$_1067 >= 1
z1068: x_11  - x_12 - y$_1068 = -1
z1069: y$_1069 >= 1
z1070: x_11  - x_13 - y$_1070 = -2
z1071: y$_1071 >= 1
z1072: x_11  - x_14 - y$_1072 = -3
z1073: y$_1073 >= 1
z1074: x_11  - x_15 - y$_1074 = -4
z1075: y$_1075 >= 1
z1076: x_11  - x_16 - y$_1076 = -5
z1077: y$_1077 >= 1
z1078: x_11  - x_17 - y$_1078 = -6
z1079: y$_1079 >= 1
z1080: x_11  - x_18 - y$_1080 = -7
z1081: y$_1081 >= 1
z1082: x_11  - x_19 - y$_1082 = -8
z1083: y$_1083 >= 1
z1084: x_12  - x_13 - y$_1084 = -1
z1085: y$_1085 >= 1
z1086: x_12  - x_14 - y$_1086 = -2
z1087: y$_1087 >= 1
z1088: x_12  - x_15 - y$_1088 = -3
z1089: y$_1089 >= 1
z1090: x_12  - x_16 - y$_1090 = -4
z1091: y$_1091 >= 1
z1092: x_12  - x_17 - y$_1092 = -5
z1093: y$_1093 >= 1
z1094: x_12  - x_18 - y$_1094 = -6
z1095: y$_1095 >= 1
z1096: x_12  - x_19 - y$_1096 = -7
z1097: y$_1097 >= 1
z1098: x_13  - x_14 - y$_1098 = -1
z1099: y$_1099 >= 1
z1100: x_13  - x_15 - y$_1100 = -2
z1101: y$_1101 >= 1
z1102: x_13  - x_16 - y$_1102 = -3
z1103: y$_1103 >= 1
z1104: x_13  - x_17 - y$_1104 = -4
z1105: y$_1105 >= 1
z1106: x_13  - x_18 - y$_1106 = -5
z1107: y$_1107 >= 1
z1108: x_13  - x_19 - y$_1108 = -6
z1109: y$_1109 >= 1
z1110: x_14  - x_15 - y$_1110 = -1
z1111: y$_1111 >= 1
z1112: x_14  - x_16 - y$_1112 = -2
z1113: y$_1113 >= 1
z1114: x_14  - x_17 - y$_1114 = -3
z1115: y$_1115 >= 1
z1116: x_14  - x_18 - y$_1116 = -4
z1117: y$_1117 >= 1
z1118: x_14  - x_19 - y$_1118 = -5
z1119: y$_1119 >= 1
z1120: x_15  - x_16 - y$_1120 = -1
z1121: y$_1121 >= 1
z1122: x_15  - x_17 - y$_1122 = -2
z1123: y$_1123 >= 1
z1124: x_15  - x_18 - y$_1124 = -3
z1125: y$_1125 >= 1
z1126: x_15  - x_19 - y$_1126 = -4
z1127: y$_1127 >= 1
z1128: x_16  - x_17 - y$_1128 = -1
z1129: y$_1129 >= 1
z1130: x_16  - x_18 - y$_1130 = -2
z1131: y$_1131 >= 1
z1132: x_16  - x_19 - y$_1132 = -3
z1133: y$_1133 >= 1
z1134: x_17  - x_18 - y$_1134 = -1
z1135: y$_1135 >= 1
z1136: x_17  - x_19 - y$_1136 = -2
z1137: y$_1137 >= 1
z1138: x_18  - x_19 - y$_1138 = -1
z1139: y$_1139 >= 1


Bounds


x_0 <= 19
x_1 <= 19
x_2 <= 19
x_3 <= 19
x_4 <= 19
x_5 <= 19
x_6 <= 19
x_7 <= 19
x_8 <= 19
x_9 <= 19
x_10 <= 19
x_11 <= 19
x_12 <= 19
x_13 <= 19
x_14 <= 19
x_15 <= 19
x_16 <= 19
x_17 <= 19
x_18 <= 19
x_19 <= 19
y$_0 free
y$_2 free
y$_4 free
y$_6 free
y$_8 free
y$_10 free
y$_12 free
y$_14 free
y$_16 free
y$_18 free
y$_20 free
y$_22 free
y$_24 free
y$_26 free
y$_28 free
y$_30 free
y$_32 free
y$_34 free
y$_36 free
y$_38 free
y$_40 free
y$_42 free
y$_44 free
y$_46 free
y$_48 free
y$_50 free
y$_52 free
y$_54 free
y$_56 free
y$_58 free
y$_60 free
y$_62 free
y$_64 free
y$_66 free
y$_68 free
y$_70 free
y$_72 free
y$_74 free
y$_76 free
y$_78 free
y$_80 free
y$_82 free
y$_84 free
y$_86 free
y$_88 free
y$_90 free
y$_92 free
y$_94 free
y$_96 free
y$_98 free
y$_100 free
y$_102 free
y$_104 free
y$_106 free
y$_108 free
y$_110 free
y$_112 free
y$_114 free
y$_116 free
y$_118 free
y$_120 free
y$_122 free
y$_124 free
y$_126 free
y$_128 free
y$_130 free
y$_132 free
y$_134 free
y$_136 free
y$_138 free
y$_140 free
y$_142 free
y$_144 free
y$_146 free
y$_148 free
y$_150 free
y$_152 free
y$_154 free
y$_156 free
y$_158 free
y$_160 free
y$_162 free
y$_164 free
y$_166 free
y$_168 free
y$_170 free
y$_172 free
y$_174 free
y$_176 free
y$_178 free
y$_180 free
y$_182 free
y$_184 free
y$_186 free
y$_188 free
y$_190 free
y$_192 free
y$_194 free
y$_196 free
y$_198 free
y$_200 free
y$_202 free
y$_204 free
y$_206 free
y$_208 free
y$_210 free
y$_212 free
y$_214 free
y$_216 free
y$_218 free
y$_220 free
y$_222 free
y$_224 free
y$_226 free
y$_228 free
y$_230 free
y$_232 free
y$_234 free
y$_236 free
y$_238 free
y$_240 free
y$_242 free
y$_244 free
y$_246 free
y$_248 free
y$_250 free
y$_252 free
y$_254 free
y$_256 free
y$_258 free
y$_260 free
y$_262 free
y$_264 free
y$_266 free
y$_268 free
y$_270 free
y$_272 free
y$_274 free
y$_276 free
y$_278 free
y$_280 free
y$_282 free
y$_284 free
y$_286 free
y$_288 free
y$_290 free
y$_292 free
y$_294 free
y$_296 free
y$_298 free
y$_300 free
y$_302 free
y$_304 free
y$_306 free
y$_308 free
y$_310 free
y$_312 free
y$_314 free
y$_316 free
y$_318 free
y$_320 free
y$_322 free
y$_324 free
y$_326 free
y$_328 free
y$_330 free
y$_332 free
y$_334 free
y$_336 free
y$_338 free
y$_340 free
y$_342 free
y$_344 free
y$_346 free
y$_348 free
y$_350 free
y$_352 free
y$_354 free
y$_356 free
y$_358 free
y$_360 free
y$_362 free
y$_364 free
y$_366 free
y$_368 free
y$_370 free
y$_372 free
y$_374 free
y$_376 free
y$_378 free
y$_380 free
y$_382 free
y$_384 free
y$_386 free
y$_388 free
y$_390 free
y$_392 free
y$_394 free
y$_396 free
y$_398 free
y$_400 free
y$_402 free
y$_404 free
y$_406 free
y$_408 free
y$_410 free
y$_412 free
y$_414 free
y$_416 free
y$_418 free
y$_420 free
y$_422 free
y$_424 free
y$_426 free
y$_428 free
y$_430 free
y$_432 free
y$_434 free
y$_436 free
y$_438 free
y$_440 free
y$_442 free
y$_444 free
y$_446 free
y$_448 free
y$_450 free
y$_452 free
y$_454 free
y$_456 free
y$_458 free
y$_460 free
y$_462 free
y$_464 free
y$_466 free
y$_468 free
y$_470 free
y$_472 free
y$_474 free
y$_476 free
y$_478 free
y$_480 free
y$_482 free
y$_484 free
y$_486 free
y$_488 free
y$_490 free
y$_492 free
y$_494 free
y$_496 free
y$_498 free
y$_500 free
y$_502 free
y$_504 free
y$_506 free
y$_508 free
y$_510 free
y$_512 free
y$_514 free
y$_516 free
y$_518 free
y$_520 free
y$_522 free
y$_524 free
y$_526 free
y$_528 free
y$_530 free
y$_532 free
y$_534 free
y$_536 free
y$_538 free
y$_540 free
y$_542 free
y$_544 free
y$_546 free
y$_548 free
y$_550 free
y$_552 free
y$_554 free
y$_556 free
y$_558 free
y$_560 free
y$_562 free
y$_564 free
y$_566 free
y$_568 free
y$_570 free
y$_572 free
y$_574 free
y$_576 free
y$_578 free
y$_580 free
y$_582 free
y$_584 free
y$_586 free
y$_588 free
y$_590 free
y$_592 free
y$_594 free
y$_596 free
y$_598 free
y$_600 free
y$_602 free
y$_604 free
y$_606 free
y$_608 free
y$_610 free
y$_612 free
y$_614 free
y$_616 free
y$_618 free
y$_620 free
y$_622 free
y$_624 free
y$_626 free
y$_628 free
y$_630 free
y$_632 free
y$_634 free
y$_636 free
y$_638 free
y$_640 free
y$_642 free
y$_644 free
y$_646 free
y$_648 free
y$_650 free
y$_652 free
y$_654 free
y$_656 free
y$_658 free
y$_660 free
y$_662 free
y$_664 free
y$_666 free
y$_668 free
y$_670 free
y$_672 free
y$_674 free
y$_676 free
y$_678 free
y$_680 free
y$_682 free
y$_684 free
y$_686 free
y$_688 free
y$_690 free
y$_692 free
y$_694 free
y$_696 free
y$_698 free
y$_700 free
y$_702 free
y$_704 free
y$_706 free
y$_708 free
y$_710 free
y$_712 free
y$_714 free
y$_716 free
y$_718 free
y$_720 free
y$_722 free
y$_724 free
y$_726 free
y$_728 free
y$_730 free
y$_732 free
y$_734 free
y$_736 free
y$_738 free
y$_740 free
y$_742 free
y$_744 free
y$_746 free
y$_748 free
y$_750 free
y$_752 free
y$_754 free
y$_756 free
y$_758 free
y$_760 free
y$_762 free
y$_764 free
y$_766 free
y$_768 free
y$_770 free
y$_772 free
y$_774 free
y$_776 free
y$_778 free
y$_780 free
y$_782 free
y$_784 free
y$_786 free
y$_788 free
y$_790 free
y$_792 free
y$_794 free
y$_796 free
y$_798 free
y$_800 free
y$_802 free
y$_804 free
y$_806 free
y$_808 free
y$_810 free
y$_812 free
y$_814 free
y$_816 free
y$_818 free
y$_820 free
y$_822 free
y$_824 free
y$_826 free
y$_828 free
y$_830 free
y$_832 free
y$_834 free
y$_836 free
y$_838 free
y$_840 free
y$_842 free
y$_844 free
y$_846 free
y$_848 free
y$_850 free
y$_852 free
y$_854 free
y$_856 free
y$_858 free
y$_860 free
y$_862 free
y$_864 free
y$_866 free
y$_868 free
y$_870 free
y$_872 free
y$_874 free
y$_876 free
y$_878 free
y$_880 free
y$_882 free
y$_884 free
y$_886 free
y$_888 free
y$_890 free
y$_892 free
y$_894 free
y$_896 free
y$_898 free
y$_900 free
y$_902 free
y$_904 free
y$_906 free
y$_908 free
y$_910 free
y$_912 free
y$_914 free
y$_916 free
y$_918 free
y$_920 free
y$_922 free
y$_924 free
y$_926 free
y$_928 free
y$_930 free
y$_932 free
y$_934 free
y$_936 free
y$_938 free
y$_940 free
y$_942 free
y$_944 free
y$_946 free
y$_948 free
y$_950 free
y$_952 free
y$_954 free
y$_956 free
y$_958 free
y$_960 free
y$_962 free
y$_964 free
y$_966 free
y$_968 free
y$_970 free
y$_972 free
y$_974 free
y$_976 free
y$_978 free
y$_980 free
y$_982 free
y$_984 free
y$_986 free
y$_988 free
y$_990 free
y$_992 free
y$_994 free
y$_996 free
y$_998 free
y$_1000 free
y$_1002 free
y$_1004 free
y$_1006 free
y$_1008 free
y$_1010 free
y$_1012 free
y$_1014 free
y$_1016 free
y$_1018 free
y$_1020 free
y$_1022 free
y$_1024 free
y$_1026 free
y$_1028 free
y$_1030 free
y$_1032 free
y$_1034 free
y$_1036 free
y$_1038 free
y$_1040 free
y$_1042 free
y$_1044 free
y$_1046 free
y$_1048 free
y$_1050 free
y$_1052 free
y$_1054 free
y$_1056 free
y$_1058 free
y$_1060 free
y$_1062 free
y$_1064 free
y$_1066 free
y$_1068 free
y$_1070 free
y$_1072 free
y$_1074 free
y$_1076 free
y$_1078 free
y$_1080 free
y$_1082 free
y$_1084 free
y$_1086 free
y$_1088 free
y$_1090 free
y$_1092 free
y$_1094 free
y$_1096 free
y$_1098 free
y$_1100 free
y$_1102 free
y$_1104 free
y$_1106 free
y$_1108 free
y$_1110 free
y$_1112 free
y$_1114 free
y$_1116 free
y$_1118 free
y$_1120 free
y$_1122 free
y$_1124 free
y$_1126 free
y$_1128 free
y$_1130 free
y$_1132 free
y$_1134 free
y$_1136 free
y$_1138 free



General

 x_0 x_1 x_2 x_3 x_4 x_5 x_6 x_7 x_8 x_9 x_10 x_11 x_12 x_13 x_14 x_15 x_16 x_17 x_18 x_19



General Constraints


gc0: y$_1 =  ABS ( y$_0 )
gc1: y$_3 =  ABS ( y$_2 )
gc2: y$_5 =  ABS ( y$_4 )
gc3: y$_7 =  ABS ( y$_6 )
gc4: y$_9 =  ABS ( y$_8 )
gc5: y$_11 =  ABS ( y$_10 )
gc6: y$_13 =  ABS ( y$_12 )
gc7: y$_15 =  ABS ( y$_14 )
gc8: y$_17 =  ABS ( y$_16 )
gc9: y$_19 =  ABS ( y$_18 )
gc10: y$_21 =  ABS ( y$_20 )
gc11: y$_23 =  ABS ( y$_22 )
gc12: y$_25 =  ABS ( y$_24 )
gc13: y$_27 =  ABS ( y$_26 )
gc14: y$_29 =  ABS ( y$_28 )
gc15: y$_31 =  ABS ( y$_30 )
gc16: y$_33 =  ABS ( y$_32 )
gc17: y$_35 =  ABS ( y$_34 )
gc18: y$_37 =  ABS ( y$_36 )
gc19: y$_39 =  ABS ( y$_38 )
gc20: y$_41 =  ABS ( y$_40 )
gc21: y$_43 =  ABS ( y$_42 )
gc22: y$_45 =  ABS ( y$_44 )
gc23: y$_47 =  ABS ( y$_46 )
gc24: y$_49 =  ABS ( y$_48 )
gc25: y$_51 =  ABS ( y$_50 )
gc26: y$_53 =  ABS ( y$_52 )
gc27: y$_55 =  ABS ( y$_54 )
gc28: y$_57 =  ABS ( y$_56 )
gc29: y$_59 =  ABS ( y$_58 )
gc30: y$_61 =  ABS ( y$_60 )
gc31: y$_63 =  ABS ( y$_62 )
gc32: y$_65 =  ABS ( y$_64 )
gc33: y$_67 =  ABS ( y$_66 )
gc34: y$_69 =  ABS ( y$_68 )
gc35: y$_71 =  ABS ( y$_70 )
gc36: y$_73 =  ABS ( y$_72 )
gc37: y$_75 =  ABS ( y$_74 )
gc38: y$_77 =  ABS ( y$_76 )
gc39: y$_79 =  ABS ( y$_78 )
gc40: y$_81 =  ABS ( y$_80 )
gc41: y$_83 =  ABS ( y$_82 )
gc42: y$_85 =  ABS ( y$_84 )
gc43: y$_87 =  ABS ( y$_86 )
gc44: y$_89 =  ABS ( y$_88 )
gc45: y$_91 =  ABS ( y$_90 )
gc46: y$_93 =  ABS ( y$_92 )
gc47: y$_95 =  ABS ( y$_94 )
gc48: y$_97 =  ABS ( y$_96 )
gc49: y$_99 =  ABS ( y$_98 )
gc50: y$_101 =  ABS ( y$_100 )
gc51: y$_103 =  ABS ( y$_102 )
gc52: y$_105 =  ABS ( y$_104 )
gc53: y$_107 =  ABS ( y$_106 )
gc54: y$_109 =  ABS ( y$_108 )
gc55: y$_111 =  ABS ( y$_110 )
gc56: y$_113 =  ABS ( y$_112 )
gc57: y$_115 =  ABS ( y$_114 )
gc58: y$_117 =  ABS ( y$_116 )
gc59: y$_119 =  ABS ( y$_118 )
gc60: y$_121 =  ABS ( y$_120 )
gc61: y$_123 =  ABS ( y$_122 )
gc62: y$_125 =  ABS ( y$_124 )
gc63: y$_127 =  ABS ( y$_126 )
gc64: y$_129 =  ABS ( y$_128 )
gc65: y$_131 =  ABS ( y$_130 )
gc66: y$_133 =  ABS ( y$_132 )
gc67: y$_135 =  ABS ( y$_134 )
gc68: y$_137 =  ABS ( y$_136 )
gc69: y$_139 =  ABS ( y$_138 )
gc70: y$_141 =  ABS ( y$_140 )
gc71: y$_143 =  ABS ( y$_142 )
gc72: y$_145 =  ABS ( y$_144 )
gc73: y$_147 =  ABS ( y$_146 )
gc74: y$_149 =  ABS ( y$_148 )
gc75: y$_151 =  ABS ( y$_150 )
gc76: y$_153 =  ABS ( y$_152 )
gc77: y$_155 =  ABS ( y$_154 )
gc78: y$_157 =  ABS ( y$_156 )
gc79: y$_159 =  ABS ( y$_158 )
gc80: y$_161 =  ABS ( y$_160 )
gc81: y$_163 =  ABS ( y$_162 )
gc82: y$_165 =  ABS ( y$_164 )
gc83: y$_167 =  ABS ( y$_166 )
gc84: y$_169 =  ABS ( y$_168 )
gc85: y$_171 =  ABS ( y$_170 )
gc86: y$_173 =  ABS ( y$_172 )
gc87: y$_175 =  ABS ( y$_174 )
gc88: y$_177 =  ABS ( y$_176 )
gc89: y$_179 =  ABS ( y$_178 )
gc90: y$_181 =  ABS ( y$_180 )
gc91: y$_183 =  ABS ( y$_182 )
gc92: y$_185 =  ABS ( y$_184 )
gc93: y$_187 =  ABS ( y$_186 )
gc94: y$_189 =  ABS ( y$_188 )
gc95: y$_191 =  ABS ( y$_190 )
gc96: y$_193 =  ABS ( y$_192 )
gc97: y$_195 =  ABS ( y$_194 )
gc98: y$_197 =  ABS ( y$_196 )
gc99: y$_199 =  ABS ( y$_198 )
gc100: y$_201 =  ABS ( y$_200 )
gc101: y$_203 =  ABS ( y$_202 )
gc102: y$_205 =  ABS ( y$_204 )
gc103: y$_207 =  ABS ( y$_206 )
gc104: y$_209 =  ABS ( y$_208 )
gc105: y$_211 =  ABS ( y$_210 )
gc106: y$_213 =  ABS ( y$_212 )
gc107: y$_215 =  ABS ( y$_214 )
gc108: y$_217 =  ABS ( y$_216 )
gc109: y$_219 =  ABS ( y$_218 )
gc110: y$_221 =  ABS ( y$_220 )
gc111: y$_223 =  ABS ( y$_222 )
gc112: y$_225 =  ABS ( y$_224 )
gc113: y$_227 =  ABS ( y$_226 )
gc114: y$_229 =  ABS ( y$_228 )
gc115: y$_231 =  ABS ( y$_230 )
gc116: y$_233 =  ABS ( y$_232 )
gc117: y$_235 =  ABS ( y$_234 )
gc118: y$_237 =  ABS ( y$_236 )
gc119: y$_239 =  ABS ( y$_238 )
gc120: y$_241 =  ABS ( y$_240 )
gc121: y$_243 =  ABS ( y$_242 )
gc122: y$_245 =  ABS ( y$_244 )
gc123: y$_247 =  ABS ( y$_246 )
gc124: y$_249 =  ABS ( y$_248 )
gc125: y$_251 =  ABS ( y$_250 )
gc126: y$_253 =  ABS ( y$_252 )
gc127: y$_255 =  ABS ( y$_254 )
gc128: y$_257 =  ABS ( y$_256 )
gc129: y$_259 =  ABS ( y$_258 )
gc130: y$_261 =  ABS ( y$_260 )
gc131: y$_263 =  ABS ( y$_262 )
gc132: y$_265 =  ABS ( y$_264 )
gc133: y$_267 =  ABS ( y$_266 )
gc134: y$_269 =  ABS ( y$_268 )
gc135: y$_271 =  ABS ( y$_270 )
gc136: y$_273 =  ABS ( y$_272 )
gc137: y$_275 =  ABS ( y$_274 )
gc138: y$_277 =  ABS ( y$_276 )
gc139: y$_279 =  ABS ( y$_278 )
gc140: y$_281 =  ABS ( y$_280 )
gc141: y$_283 =  ABS ( y$_282 )
gc142: y$_285 =  ABS ( y$_284 )
gc143: y$_287 =  ABS ( y$_286 )
gc144: y$_289 =  ABS ( y$_288 )
gc145: y$_291 =  ABS ( y$_290 )
gc146: y$_293 =  ABS ( y$_292 )
gc147: y$_295 =  ABS ( y$_294 )
gc148: y$_297 =  ABS ( y$_296 )
gc149: y$_299 =  ABS ( y$_298 )
gc150: y$_301 =  ABS ( y$_300 )
gc151: y$_303 =  ABS ( y$_302 )
gc152: y$_305 =  ABS ( y$_304 )
gc153: y$_307 =  ABS ( y$_306 )
gc154: y$_309 =  ABS ( y$_308 )
gc155: y$_311 =  ABS ( y$_310 )
gc156: y$_313 =  ABS ( y$_312 )
gc157: y$_315 =  ABS ( y$_314 )
gc158: y$_317 =  ABS ( y$_316 )
gc159: y$_319 =  ABS ( y$_318 )
gc160: y$_321 =  ABS ( y$_320 )
gc161: y$_323 =  ABS ( y$_322 )
gc162: y$_325 =  ABS ( y$_324 )
gc163: y$_327 =  ABS ( y$_326 )
gc164: y$_329 =  ABS ( y$_328 )
gc165: y$_331 =  ABS ( y$_330 )
gc166: y$_333 =  ABS ( y$_332 )
gc167: y$_335 =  ABS ( y$_334 )
gc168: y$_337 =  ABS ( y$_336 )
gc169: y$_339 =  ABS ( y$_338 )
gc170: y$_341 =  ABS ( y$_340 )
gc171: y$_343 =  ABS ( y$_342 )
gc172: y$_345 =  ABS ( y$_344 )
gc173: y$_347 =  ABS ( y$_346 )
gc174: y$_349 =  ABS ( y$_348 )
gc175: y$_351 =  ABS ( y$_350 )
gc176: y$_353 =  ABS ( y$_352 )
gc177: y$_355 =  ABS ( y$_354 )
gc178: y$_357 =  ABS ( y$_356 )
gc179: y$_359 =  ABS ( y$_358 )
gc180: y$_361 =  ABS ( y$_360 )
gc181: y$_363 =  ABS ( y$_362 )
gc182: y$_365 =  ABS ( y$_364 )
gc183: y$_367 =  ABS ( y$_366 )
gc184: y$_369 =  ABS ( y$_368 )
gc185: y$_371 =  ABS ( y$_370 )
gc186: y$_373 =  ABS ( y$_372 )
gc187: y$_375 =  ABS ( y$_374 )
gc188: y$_377 =  ABS ( y$_376 )
gc189: y$_379 =  ABS ( y$_378 )
gc190: y$_381 =  ABS ( y$_380 )
gc191: y$_383 =  ABS ( y$_382 )
gc192: y$_385 =  ABS ( y$_384 )
gc193: y$_387 =  ABS ( y$_386 )
gc194: y$_389 =  ABS ( y$_388 )
gc195: y$_391 =  ABS ( y$_390 )
gc196: y$_393 =  ABS ( y$_392 )
gc197: y$_395 =  ABS ( y$_394 )
gc198: y$_397 =  ABS ( y$_396 )
gc199: y$_399 =  ABS ( y$_398 )
gc200: y$_401 =  ABS ( y$_400 )
gc201: y$_403 =  ABS ( y$_402 )
gc202: y$_405 =  ABS ( y$_404 )
gc203: y$_407 =  ABS ( y$_406 )
gc204: y$_409 =  ABS ( y$_408 )
gc205: y$_411 =  ABS ( y$_410 )
gc206: y$_413 =  ABS ( y$_412 )
gc207: y$_415 =  ABS ( y$_414 )
gc208: y$_417 =  ABS ( y$_416 )
gc209: y$_419 =  ABS ( y$_418 )
gc210: y$_421 =  ABS ( y$_420 )
gc211: y$_423 =  ABS ( y$_422 )
gc212: y$_425 =  ABS ( y$_424 )
gc213: y$_427 =  ABS ( y$_426 )
gc214: y$_429 =  ABS ( y$_428 )
gc215: y$_431 =  ABS ( y$_430 )
gc216: y$_433 =  ABS ( y$_432 )
gc217: y$_435 =  ABS ( y$_434 )
gc218: y$_437 =  ABS ( y$_436 )
gc219: y$_439 =  ABS ( y$_438 )
gc220: y$_441 =  ABS ( y$_440 )
gc221: y$_443 =  ABS ( y$_442 )
gc222: y$_445 =  ABS ( y$_444 )
gc223: y$_447 =  ABS ( y$_446 )
gc224: y$_449 =  ABS ( y$_448 )
gc225: y$_451 =  ABS ( y$_450 )
gc226: y$_453 =  ABS ( y$_452 )
gc227: y$_455 =  ABS ( y$_454 )
gc228: y$_457 =  ABS ( y$_456 )
gc229: y$_459 =  ABS ( y$_458 )
gc230: y$_461 =  ABS ( y$_460 )
gc231: y$_463 =  ABS ( y$_462 )
gc232: y$_465 =  ABS ( y$_464 )
gc233: y$_467 =  ABS ( y$_466 )
gc234: y$_469 =  ABS ( y$_468 )
gc235: y$_471 =  ABS ( y$_470 )
gc236: y$_473 =  ABS ( y$_472 )
gc237: y$_475 =  ABS ( y$_474 )
gc238: y$_477 =  ABS ( y$_476 )
gc239: y$_479 =  ABS ( y$_478 )
gc240: y$_481 =  ABS ( y$_480 )
gc241: y$_483 =  ABS ( y$_482 )
gc242: y$_485 =  ABS ( y$_484 )
gc243: y$_487 =  ABS ( y$_486 )
gc244: y$_489 =  ABS ( y$_488 )
gc245: y$_491 =  ABS ( y$_490 )
gc246: y$_493 =  ABS ( y$_492 )
gc247: y$_495 =  ABS ( y$_494 )
gc248: y$_497 =  ABS ( y$_496 )
gc249: y$_499 =  ABS ( y$_498 )
gc250: y$_501 =  ABS ( y$_500 )
gc251: y$_503 =  ABS ( y$_502 )
gc252: y$_505 =  ABS ( y$_504 )
gc253: y$_507 =  ABS ( y$_506 )
gc254: y$_509 =  ABS ( y$_508 )
gc255: y$_511 =  ABS ( y$_510 )
gc256: y$_513 =  ABS ( y$_512 )
gc257: y$_515 =  ABS ( y$_514 )
gc258: y$_517 =  ABS ( y$_516 )
gc259: y$_519 =  ABS ( y$_518 )
gc260: y$_521 =  ABS ( y$_520 )
gc261: y$_523 =  ABS ( y$_522 )
gc262: y$_525 =  ABS ( y$_524 )
gc263: y$_527 =  ABS ( y$_526 )
gc264: y$_529 =  ABS ( y$_528 )
gc265: y$_531 =  ABS ( y$_530 )
gc266: y$_533 =  ABS ( y$_532 )
gc267: y$_535 =  ABS ( y$_534 )
gc268: y$_537 =  ABS ( y$_536 )
gc269: y$_539 =  ABS ( y$_538 )
gc270: y$_541 =  ABS ( y$_540 )
gc271: y$_543 =  ABS ( y$_542 )
gc272: y$_545 =  ABS ( y$_544 )
gc273: y$_547 =  ABS ( y$_546 )
gc274: y$_549 =  ABS ( y$_548 )
gc275: y$_551 =  ABS ( y$_550 )
gc276: y$_553 =  ABS ( y$_552 )
gc277: y$_555 =  ABS ( y$_554 )
gc278: y$_557 =  ABS ( y$_556 )
gc279: y$_559 =  ABS ( y$_558 )
gc280: y$_561 =  ABS ( y$_560 )
gc281: y$_563 =  ABS ( y$_562 )
gc282: y$_565 =  ABS ( y$_564 )
gc283: y$_567 =  ABS ( y$_566 )
gc284: y$_569 =  ABS ( y$_568 )
gc285: y$_571 =  ABS ( y$_570 )
gc286: y$_573 =  ABS ( y$_572 )
gc287: y$_575 =  ABS ( y$_574 )
gc288: y$_577 =  ABS ( y$_576 )
gc289: y$_579 =  ABS ( y$_578 )
gc290: y$_581 =  ABS ( y$_580 )
gc291: y$_583 =  ABS ( y$_582 )
gc292: y$_585 =  ABS ( y$_584 )
gc293: y$_587 =  ABS ( y$_586 )
gc294: y$_589 =  ABS ( y$_588 )
gc295: y$_591 =  ABS ( y$_590 )
gc296: y$_593 =  ABS ( y$_592 )
gc297: y$_595 =  ABS ( y$_594 )
gc298: y$_597 =  ABS ( y$_596 )
gc299: y$_599 =  ABS ( y$_598 )
gc300: y$_601 =  ABS ( y$_600 )
gc301: y$_603 =  ABS ( y$_602 )
gc302: y$_605 =  ABS ( y$_604 )
gc303: y$_607 =  ABS ( y$_606 )
gc304: y$_609 =  ABS ( y$_608 )
gc305: y$_611 =  ABS ( y$_610 )
gc306: y$_613 =  ABS ( y$_612 )
gc307: y$_615 =  ABS ( y$_614 )
gc308: y$_617 =  ABS ( y$_616 )
gc309: y$_619 =  ABS ( y$_618 )
gc310: y$_621 =  ABS ( y$_620 )
gc311: y$_623 =  ABS ( y$_622 )
gc312: y$_625 =  ABS ( y$_624 )
gc313: y$_627 =  ABS ( y$_626 )
gc314: y$_629 =  ABS ( y$_628 )
gc315: y$_631 =  ABS ( y$_630 )
gc316: y$_633 =  ABS ( y$_632 )
gc317: y$_635 =  ABS ( y$_634 )
gc318: y$_637 =  ABS ( y$_636 )
gc319: y$_639 =  ABS ( y$_638 )
gc320: y$_641 =  ABS ( y$_640 )
gc321: y$_643 =  ABS ( y$_642 )
gc322: y$_645 =  ABS ( y$_644 )
gc323: y$_647 =  ABS ( y$_646 )
gc324: y$_649 =  ABS ( y$_648 )
gc325: y$_651 =  ABS ( y$_650 )
gc326: y$_653 =  ABS ( y$_652 )
gc327: y$_655 =  ABS ( y$_654 )
gc328: y$_657 =  ABS ( y$_656 )
gc329: y$_659 =  ABS ( y$_658 )
gc330: y$_661 =  ABS ( y$_660 )
gc331: y$_663 =  ABS ( y$_662 )
gc332: y$_665 =  ABS ( y$_664 )
gc333: y$_667 =  ABS ( y$_666 )
gc334: y$_669 =  ABS ( y$_668 )
gc335: y$_671 =  ABS ( y$_670 )
gc336: y$_673 =  ABS ( y$_672 )
gc337: y$_675 =  ABS ( y$_674 )
gc338: y$_677 =  ABS ( y$_676 )
gc339: y$_679 =  ABS ( y$_678 )
gc340: y$_681 =  ABS ( y$_680 )
gc341: y$_683 =  ABS ( y$_682 )
gc342: y$_685 =  ABS ( y$_684 )
gc343: y$_687 =  ABS ( y$_686 )
gc344: y$_689 =  ABS ( y$_688 )
gc345: y$_691 =  ABS ( y$_690 )
gc346: y$_693 =  ABS ( y$_692 )
gc347: y$_695 =  ABS ( y$_694 )
gc348: y$_697 =  ABS ( y$_696 )
gc349: y$_699 =  ABS ( y$_698 )
gc350: y$_701 =  ABS ( y$_700 )
gc351: y$_703 =  ABS ( y$_702 )
gc352: y$_705 =  ABS ( y$_704 )
gc353: y$_707 =  ABS ( y$_706 )
gc354: y$_709 =  ABS ( y$_708 )
gc355: y$_711 =  ABS ( y$_710 )
gc356: y$_713 =  ABS ( y$_712 )
gc357: y$_715 =  ABS ( y$_714 )
gc358: y$_717 =  ABS ( y$_716 )
gc359: y$_719 =  ABS ( y$_718 )
gc360: y$_721 =  ABS ( y$_720 )
gc361: y$_723 =  ABS ( y$_722 )
gc362: y$_725 =  ABS ( y$_724 )
gc363: y$_727 =  ABS ( y$_726 )
gc364: y$_729 =  ABS ( y$_728 )
gc365: y$_731 =  ABS ( y$_730 )
gc366: y$_733 =  ABS ( y$_732 )
gc367: y$_735 =  ABS ( y$_734 )
gc368: y$_737 =  ABS ( y$_736 )
gc369: y$_739 =  ABS ( y$_738 )
gc370: y$_741 =  ABS ( y$_740 )
gc371: y$_743 =  ABS ( y$_742 )
gc372: y$_745 =  ABS ( y$_744 )
gc373: y$_747 =  ABS ( y$_746 )
gc374: y$_749 =  ABS ( y$_748 )
gc375: y$_751 =  ABS ( y$_750 )
gc376: y$_753 =  ABS ( y$_752 )
gc377: y$_755 =  ABS ( y$_754 )
gc378: y$_757 =  ABS ( y$_756 )
gc379: y$_759 =  ABS ( y$_758 )
gc380: y$_761 =  ABS ( y$_760 )
gc381: y$_763 =  ABS ( y$_762 )
gc382: y$_765 =  ABS ( y$_764 )
gc383: y$_767 =  ABS ( y$_766 )
gc384: y$_769 =  ABS ( y$_768 )
gc385: y$_771 =  ABS ( y$_770 )
gc386: y$_773 =  ABS ( y$_772 )
gc387: y$_775 =  ABS ( y$_774 )
gc388: y$_777 =  ABS ( y$_776 )
gc389: y$_779 =  ABS ( y$_778 )
gc390: y$_781 =  ABS ( y$_780 )
gc391: y$_783 =  ABS ( y$_782 )
gc392: y$_785 =  ABS ( y$_784 )
gc393: y$_787 =  ABS ( y$_786 )
gc394: y$_789 =  ABS ( y$_788 )
gc395: y$_791 =  ABS ( y$_790 )
gc396: y$_793 =  ABS ( y$_792 )
gc397: y$_795 =  ABS ( y$_794 )
gc398: y$_797 =  ABS ( y$_796 )
gc399: y$_799 =  ABS ( y$_798 )
gc400: y$_801 =  ABS ( y$_800 )
gc401: y$_803 =  ABS ( y$_802 )
gc402: y$_805 =  ABS ( y$_804 )
gc403: y$_807 =  ABS ( y$_806 )
gc404: y$_809 =  ABS ( y$_808 )
gc405: y$_811 =  ABS ( y$_810 )
gc406: y$_813 =  ABS ( y$_812 )
gc407: y$_815 =  ABS ( y$_814 )
gc408: y$_817 =  ABS ( y$_816 )
gc409: y$_819 =  ABS ( y$_818 )
gc410: y$_821 =  ABS ( y$_820 )
gc411: y$_823 =  ABS ( y$_822 )
gc412: y$_825 =  ABS ( y$_824 )
gc413: y$_827 =  ABS ( y$_826 )
gc414: y$_829 =  ABS ( y$_828 )
gc415: y$_831 =  ABS ( y$_830 )
gc416: y$_833 =  ABS ( y$_832 )
gc417: y$_835 =  ABS ( y$_834 )
gc418: y$_837 =  ABS ( y$_836 )
gc419: y$_839 =  ABS ( y$_838 )
gc420: y$_841 =  ABS ( y$_840 )
gc421: y$_843 =  ABS ( y$_842 )
gc422: y$_845 =  ABS ( y$_844 )
gc423: y$_847 =  ABS ( y$_846 )
gc424: y$_849 =  ABS ( y$_848 )
gc425: y$_851 =  ABS ( y$_850 )
gc426: y$_853 =  ABS ( y$_852 )
gc427: y$_855 =  ABS ( y$_854 )
gc428: y$_857 =  ABS ( y$_856 )
gc429: y$_859 =  ABS ( y$_858 )
gc430: y$_861 =  ABS ( y$_860 )
gc431: y$_863 =  ABS ( y$_862 )
gc432: y$_865 =  ABS ( y$_864 )
gc433: y$_867 =  ABS ( y$_866 )
gc434: y$_869 =  ABS ( y$_868 )
gc435: y$_871 =  ABS ( y$_870 )
gc436: y$_873 =  ABS ( y$_872 )
gc437: y$_875 =  ABS ( y$_874 )
gc438: y$_877 =  ABS ( y$_876 )
gc439: y$_879 =  ABS ( y$_878 )
gc440: y$_881 =  ABS ( y$_880 )
gc441: y$_883 =  ABS ( y$_882 )
gc442: y$_885 =  ABS ( y$_884 )
gc443: y$_887 =  ABS ( y$_886 )
gc444: y$_889 =  ABS ( y$_888 )
gc445: y$_891 =  ABS ( y$_890 )
gc446: y$_893 =  ABS ( y$_892 )
gc447: y$_895 =  ABS ( y$_894 )
gc448: y$_897 =  ABS ( y$_896 )
gc449: y$_899 =  ABS ( y$_898 )
gc450: y$_901 =  ABS ( y$_900 )
gc451: y$_903 =  ABS ( y$_902 )
gc452: y$_905 =  ABS ( y$_904 )
gc453: y$_907 =  ABS ( y$_906 )
gc454: y$_909 =  ABS ( y$_908 )
gc455: y$_911 =  ABS ( y$_910 )
gc456: y$_913 =  ABS ( y$_912 )
gc457: y$_915 =  ABS ( y$_914 )
gc458: y$_917 =  ABS ( y$_916 )
gc459: y$_919 =  ABS ( y$_918 )
gc460: y$_921 =  ABS ( y$_920 )
gc461: y$_923 =  ABS ( y$_922 )
gc462: y$_925 =  ABS ( y$_924 )
gc463: y$_927 =  ABS ( y$_926 )
gc464: y$_929 =  ABS ( y$_928 )
gc465: y$_931 =  ABS ( y$_930 )
gc466: y$_933 =  ABS ( y$_932 )
gc467: y$_935 =  ABS ( y$_934 )
gc468: y$_937 =  ABS ( y$_936 )
gc469: y$_939 =  ABS ( y$_938 )
gc470: y$_941 =  ABS ( y$_940 )
gc471: y$_943 =  ABS ( y$_942 )
gc472: y$_945 =  ABS ( y$_944 )
gc473: y$_947 =  ABS ( y$_946 )
gc474: y$_949 =  ABS ( y$_948 )
gc475: y$_951 =  ABS ( y$_950 )
gc476: y$_953 =  ABS ( y$_952 )
gc477: y$_955 =  ABS ( y$_954 )
gc478: y$_957 =  ABS ( y$_956 )
gc479: y$_959 =  ABS ( y$_958 )
gc480: y$_961 =  ABS ( y$_960 )
gc481: y$_963 =  ABS ( y$_962 )
gc482: y$_965 =  ABS ( y$_964 )
gc483: y$_967 =  ABS ( y$_966 )
gc484: y$_969 =  ABS ( y$_968 )
gc485: y$_971 =  ABS ( y$_970 )
gc486: y$_973 =  ABS ( y$_972 )
gc487: y$_975 =  ABS ( y$_974 )
gc488: y$_977 =  ABS ( y$_976 )
gc489: y$_979 =  ABS ( y$_978 )
gc490: y$_981 =  ABS ( y$_980 )
gc491: y$_983 =  ABS ( y$_982 )
gc492: y$_985 =  ABS ( y$_984 )
gc493: y$_987 =  ABS ( y$_986 )
gc494: y$_989 =  ABS ( y$_988 )
gc495: y$_991 =  ABS ( y$_990 )
gc496: y$_993 =  ABS ( y$_992 )
gc497: y$_995 =  ABS ( y$_994 )
gc498: y$_997 =  ABS ( y$_996 )
gc499: y$_999 =  ABS ( y$_998 )
gc500: y$_1001 =  ABS ( y$_1000 )
gc501: y$_1003 =  ABS ( y$_1002 )
gc502: y$_1005 =  ABS ( y$_1004 )
gc503: y$_1007 =  ABS ( y$_1006 )
gc504: y$_1009 =  ABS ( y$_1008 )
gc505: y$_1011 =  ABS ( y$_1010 )
gc506: y$_1013 =  ABS ( y$_1012 )
gc507: y$_1015 =  ABS ( y$_1014 )
gc508: y$_1017 =  ABS ( y$_1016 )
gc509: y$_1019 =  ABS ( y$_1018 )
gc510: y$_1021 =  ABS ( y$_1020 )
gc511: y$_1023 =  ABS ( y$_1022 )
gc512: y$_1025 =  ABS ( y$_1024 )
gc513: y$_1027 =  ABS ( y$_1026 )
gc514: y$_1029 =  ABS ( y$_1028 )
gc515: y$_1031 =  ABS ( y$_1030 )
gc516: y$_1033 =  ABS ( y$_1032 )
gc517: y$_1035 =  ABS ( y$_1034 )
gc518: y$_1037 =  ABS ( y$_1036 )
gc519: y$_1039 =  ABS ( y$_1038 )
gc520: y$_1041 =  ABS ( y$_1040 )
gc521: y$_1043 =  ABS ( y$_1042 )
gc522: y$_1045 =  ABS ( y$_1044 )
gc523: y$_1047 =  ABS ( y$_1046 )
gc524: y$_1049 =  ABS ( y$_1048 )
gc525: y$_1051 =  ABS ( y$_1050 )
gc526: y$_1053 =  ABS ( y$_1052 )
gc527: y$_1055 =  ABS ( y$_1054 )
gc528: y$_1057 =  ABS ( y$_1056 )
gc529: y$_1059 =  ABS ( y$_1058 )
gc530: y$_1061 =  ABS ( y$_1060 )
gc531: y$_1063 =  ABS ( y$_1062 )
gc532: y$_1065 =  ABS ( y$_1064 )
gc533: y$_1067 =  ABS ( y$_1066 )
gc534: y$_1069 =  ABS ( y$_1068 )
gc535: y$_1071 =  ABS ( y$_1070 )
gc536: y$_1073 =  ABS ( y$_1072 )
gc537: y$_1075 =  ABS ( y$_1074 )
gc538: y$_1077 =  ABS ( y$_1076 )
gc539: y$_1079 =  ABS ( y$_1078 )
gc540: y$_1081 =  ABS ( y$_1080 )
gc541: y$_1083 =  ABS ( y$_1082 )
gc542: y$_1085 =  ABS ( y$_1084 )
gc543: y$_1087 =  ABS ( y$_1086 )
gc544: y$_1089 =  ABS ( y$_1088 )
gc545: y$_1091 =  ABS ( y$_1090 )
gc546: y$_1093 =  ABS ( y$_1092 )
gc547: y$_1095 =  ABS ( y$_1094 )
gc548: y$_1097 =  ABS ( y$_1096 )
gc549: y$_1099 =  ABS ( y$_1098 )
gc550: y$_1101 =  ABS ( y$_1100 )
gc551: y$_1103 =  ABS ( y$_1102 )
gc552: y$_1105 =  ABS ( y$_1104 )
gc553: y$_1107 =  ABS ( y$_1106 )
gc554: y$_1109 =  ABS ( y$_1108 )
gc555: y$_1111 =  ABS ( y$_1110 )
gc556: y$_1113 =  ABS ( y$_1112 )
gc557: y$_1115 =  ABS ( y$_1114 )
gc558: y$_1117 =  ABS ( y$_1116 )
gc559: y$_1119 =  ABS ( y$_1118 )
gc560: y$_1121 =  ABS ( y$_1120 )
gc561: y$_1123 =  ABS ( y$_1122 )
gc562: y$_1125 =  ABS ( y$_1124 )
gc563: y$_1127 =  ABS ( y$_1126 )
gc564: y$_1129 =  ABS ( y$_1128 )
gc565: y$_1131 =  ABS ( y$_1130 )
gc566: y$_1133 =  ABS ( y$_1132 )
gc567: y$_1135 =  ABS ( y$_1134 )
gc568: y$_1137 =  ABS ( y$_1136 )
gc569: y$_1139 =  ABS ( y$_1138 )

End
