Minimize

x_0


Subject To

a0: h1_0_1 - x_0 + x_1 = 0
a1: h1_0_2 - x_0 + x_2 = 0
a2: h1_0_3 - x_0 + x_3 = 0
a3: h1_0_4 - x_0 + x_4 = 0
a4: h1_0_5 - x_0 + x_5 = 0
a5: h1_0_6 - x_0 + x_6 = 0
a6: h1_0_7 - x_0 + x_7 = 0
a7: h1_0_8 - x_0 + x_8 = 0
a8: h1_0_9 - x_0 + x_9 = 0
a9: h1_1_2 - x_1 + x_2 = 0
a10: h1_1_3 - x_1 + x_3 = 0
a11: h1_1_4 - x_1 + x_4 = 0
a12: h1_1_5 - x_1 + x_5 = 0
a13: h1_1_6 - x_1 + x_6 = 0
a14: h1_1_7 - x_1 + x_7 = 0
a15: h1_1_8 - x_1 + x_8 = 0
a16: h1_1_9 - x_1 + x_9 = 0
a17: h1_2_3 - x_2 + x_3 = 0
a18: h1_2_4 - x_2 + x_4 = 0
a19: h1_2_5 - x_2 + x_5 = 0
a20: h1_2_6 - x_2 + x_6 = 0
a21: h1_2_7 - x_2 + x_7 = 0
a22: h1_2_8 - x_2 + x_8 = 0
a23: h1_2_9 - x_2 + x_9 = 0
a24: h1_3_4 - x_3 + x_4 = 0
a25: h1_3_5 - x_3 + x_5 = 0
a26: h1_3_6 - x_3 + x_6 = 0
a27: h1_3_7 - x_3 + x_7 = 0
a28: h1_3_8 - x_3 + x_8 = 0
a29: h1_3_9 - x_3 + x_9 = 0
a30: h1_4_5 - x_4 + x_5 = 0
a31: h1_4_6 - x_4 + x_6 = 0
a32: h1_4_7 - x_4 + x_7 = 0
a33: h1_4_8 - x_4 + x_8 = 0
a34: h1_4_9 - x_4 + x_9 = 0
a35: h1_5_6 - x_5 + x_6 = 0
a36: h1_5_7 - x_5 + x_7 = 0
a37: h1_5_8 - x_5 + x_8 = 0
a38: h1_5_9 - x_5 + x_9 = 0
a39: h1_6_7 - x_6 + x_7 = 0
a40: h1_6_8 - x_6 + x_8 = 0
a41: h1_6_9 - x_6 + x_9 = 0
a42: h1_7_8 - x_7 + x_8 = 0
a43: h1_7_9 - x_7 + x_9 = 0
a44: h1_8_9 - x_8 + x_9 = 0
b0: h2_0_1 - x_0 + x_1 = -1
b1: h2_0_2 - x_0 + x_2 = -2
b2: h2_0_3 - x_0 + x_3 = -3
b3: h2_0_4 - x_0 + x_4 = -4
b4: h2_0_5 - x_0 + x_5 = -5
b5: h2_0_6 - x_0 + x_6 = -6
b6: h2_0_7 - x_0 + x_7 = -7
b7: h2_0_8 - x_0 + x_8 = -8
b8: h2_0_9 - x_0 + x_9 = -9
b9: h2_1_2 - x_1 + x_2 = -1
b10: h2_1_3 - x_1 + x_3 = -2
b11: h2_1_4 - x_1 + x_4 = -3
b12: h2_1_5 - x_1 + x_5 = -4
b13: h2_1_6 - x_1 + x_6 = -5
b14: h2_1_7 - x_1 + x_7 = -6
b15: h2_1_8 - x_1 + x_8 = -7
b16: h2_1_9 - x_1 + x_9 = -8
b17: h2_2_3 - x_2 + x_3 = -1
b18: h2_2_4 - x_2 + x_4 = -2
b19: h2_2_5 - x_2 + x_5 = -3
b20: h2_2_6 - x_2 + x_6 = -4
b21: h2_2_7 - x_2 + x_7 = -5
b22: h2_2_8 - x_2 + x_8 = -6
b23: h2_2_9 - x_2 + x_9 = -7
b24: h2_3_4 - x_3 + x_4 = -1
b25: h2_3_5 - x_3 + x_5 = -2
b26: h2_3_6 - x_3 + x_6 = -3
b27: h2_3_7 - x_3 + x_7 = -4
b28: h2_3_8 - x_3 + x_8 = -5
b29: h2_3_9 - x_3 + x_9 = -6
b30: h2_4_5 - x_4 + x_5 = -1
b31: h2_4_6 - x_4 + x_6 = -2
b32: h2_4_7 - x_4 + x_7 = -3
b33: h2_4_8 - x_4 + x_8 = -4
b34: h2_4_9 - x_4 + x_9 = -5
b35: h2_5_6 - x_5 + x_6 = -1
b36: h2_5_7 - x_5 + x_7 = -2
b37: h2_5_8 - x_5 + x_8 = -3
b38: h2_5_9 - x_5 + x_9 = -4
b39: h2_6_7 - x_6 + x_7 = -1
b40: h2_6_8 - x_6 + x_8 = -2
b41: h2_6_9 - x_6 + x_9 = -3
b42: h2_7_8 - x_7 + x_8 = -1
b43: h2_7_9 - x_7 + x_9 = -2
b44: h2_8_9 - x_8 + x_9 = -1
c0: h3_0_1 - x_0 + x_1 = 1
c1: h3_0_2 - x_0 + x_2 = 2
c2: h3_0_3 - x_0 + x_3 = 3
c3: h3_0_4 - x_0 + x_4 = 4
c4: h3_0_5 - x_0 + x_5 = 5
c5: h3_0_6 - x_0 + x_6 = 6
c6: h3_0_7 - x_0 + x_7 = 7
c7: h3_0_8 - x_0 + x_8 = 8
c8: h3_0_9 - x_0 + x_9 = 9
c9: h3_1_2 - x_1 + x_2 = 1
c10: h3_1_3 - x_1 + x_3 = 2
c11: h3_1_4 - x_1 + x_4 = 3
c12: h3_1_5 - x_1 + x_5 = 4
c13: h3_1_6 - x_1 + x_6 = 5
c14: h3_1_7 - x_1 + x_7 = 6
c15: h3_1_8 - x_1 + x_8 = 7
c16: h3_1_9 - x_1 + x_9 = 8
c17: h3_2_3 - x_2 + x_3 = 1
c18: h3_2_4 - x_2 + x_4 = 2
c19: h3_2_5 - x_2 + x_5 = 3
c20: h3_2_6 - x_2 + x_6 = 4
c21: h3_2_7 - x_2 + x_7 = 5
c22: h3_2_8 - x_2 + x_8 = 6
c23: h3_2_9 - x_2 + x_9 = 7
c24: h3_3_4 - x_3 + x_4 = 1
c25: h3_3_5 - x_3 + x_5 = 2
c26: h3_3_6 - x_3 + x_6 = 3
c27: h3_3_7 - x_3 + x_7 = 4
c28: h3_3_8 - x_3 + x_8 = 5
c29: h3_3_9 - x_3 + x_9 = 6
c30: h3_4_5 - x_4 + x_5 = 1
c31: h3_4_6 - x_4 + x_6 = 2
c32: h3_4_7 - x_4 + x_7 = 3
c33: h3_4_8 - x_4 + x_8 = 4
c34: h3_4_9 - x_4 + x_9 = 5
c35: h3_5_6 - x_5 + x_6 = 1
c36: h3_5_7 - x_5 + x_7 = 2
c37: h3_5_8 - x_5 + x_8 = 3
c38: h3_5_9 - x_5 + x_9 = 4
c39: h3_6_7 - x_6 + x_7 = 1
c40: h3_6_8 - x_6 + x_8 = 2
c41: h3_6_9 - x_6 + x_9 = 3
c42: h3_7_8 - x_7 + x_8 = 1
c43: h3_7_9 - x_7 + x_9 = 2
c44: h3_8_9 - x_8 + x_9 = 1
e0: z1_0_1 >= 1.0
e1: z1_0_2 >= 1.0
e2: z1_0_3 >= 1.0
e3: z1_0_4 >= 1.0
e4: z1_0_5 >= 1.0
e5: z1_0_6 >= 1.0
e6: z1_0_7 >= 1.0
e7: z1_0_8 >= 1.0
e8: z1_0_9 >= 1.0
e9: z1_1_2 >= 1.0
e10: z1_1_3 >= 1.0
e11: z1_1_4 >= 1.0
e12: z1_1_5 >= 1.0
e13: z1_1_6 >= 1.0
e14: z1_1_7 >= 1.0
e15: z1_1_8 >= 1.0
e16: z1_1_9 >= 1.0
e17: z1_2_3 >= 1.0
e18: z1_2_4 >= 1.0
e19: z1_2_5 >= 1.0
e20: z1_2_6 >= 1.0
e21: z1_2_7 >= 1.0
e22: z1_2_8 >= 1.0
e23: z1_2_9 >= 1.0
e24: z1_3_4 >= 1.0
e25: z1_3_5 >= 1.0
e26: z1_3_6 >= 1.0
e27: z1_3_7 >= 1.0
e28: z1_3_8 >= 1.0
e29: z1_3_9 >= 1.0
e30: z1_4_5 >= 1.0
e31: z1_4_6 >= 1.0
e32: z1_4_7 >= 1.0
e33: z1_4_8 >= 1.0
e34: z1_4_9 >= 1.0
e35: z1_5_6 >= 1.0
e36: z1_5_7 >= 1.0
e37: z1_5_8 >= 1.0
e38: z1_5_9 >= 1.0
e39: z1_6_7 >= 1.0
e40: z1_6_8 >= 1.0
e41: z1_6_9 >= 1.0
e42: z1_7_8 >= 1.0
e43: z1_7_9 >= 1.0
e44: z1_8_9 >= 1.0
g0: z2_0_1 >= 1.0
g1: z2_0_2 >= 1.0
g2: z2_0_3 >= 1.0
g3: z2_0_4 >= 1.0
g4: z2_0_5 >= 1.0
g5: z2_0_6 >= 1.0
g6: z2_0_7 >= 1.0
g7: z2_0_8 >= 1.0
g8: z2_0_9 >= 1.0
g9: z2_1_2 >= 1.0
g10: z2_1_3 >= 1.0
g11: z2_1_4 >= 1.0
g12: z2_1_5 >= 1.0
g13: z2_1_6 >= 1.0
g14: z2_1_7 >= 1.0
g15: z2_1_8 >= 1.0
g16: z2_1_9 >= 1.0
g17: z2_2_3 >= 1.0
g18: z2_2_4 >= 1.0
g19: z2_2_5 >= 1.0
g20: z2_2_6 >= 1.0
g21: z2_2_7 >= 1.0
g22: z2_2_8 >= 1.0
g23: z2_2_9 >= 1.0
g24: z2_3_4 >= 1.0
g25: z2_3_5 >= 1.0
g26: z2_3_6 >= 1.0
g27: z2_3_7 >= 1.0
g28: z2_3_8 >= 1.0
g29: z2_3_9 >= 1.0
g30: z2_4_5 >= 1.0
g31: z2_4_6 >= 1.0
g32: z2_4_7 >= 1.0
g33: z2_4_8 >= 1.0
g34: z2_4_9 >= 1.0
g35: z2_5_6 >= 1.0
g36: z2_5_7 >= 1.0
g37: z2_5_8 >= 1.0
g38: z2_5_9 >= 1.0
g39: z2_6_7 >= 1.0
g40: z2_6_8 >= 1.0
g41: z2_6_9 >= 1.0
g42: z2_7_8 >= 1.0
g43: z2_7_9 >= 1.0
g44: z2_8_9 >= 1.0
p0: z3_0_1 >= 1.0
p1: z3_0_2 >= 1.0
p2: z3_0_3 >= 1.0
p3: z3_0_4 >= 1.0
p4: z3_0_5 >= 1.0
p5: z3_0_6 >= 1.0
p6: z3_0_7 >= 1.0
p7: z3_0_8 >= 1.0
p8: z3_0_9 >= 1.0
p9: z3_1_2 >= 1.0
p10: z3_1_3 >= 1.0
p11: z3_1_4 >= 1.0
p12: z3_1_5 >= 1.0
p13: z3_1_6 >= 1.0
p14: z3_1_7 >= 1.0
p15: z3_1_8 >= 1.0
p16: z3_1_9 >= 1.0
p17: z3_2_3 >= 1.0
p18: z3_2_4 >= 1.0
p19: z3_2_5 >= 1.0
p20: z3_2_6 >= 1.0
p21: z3_2_7 >= 1.0
p22: z3_2_8 >= 1.0
p23: z3_2_9 >= 1.0
p24: z3_3_4 >= 1.0
p25: z3_3_5 >= 1.0
p26: z3_3_6 >= 1.0
p27: z3_3_7 >= 1.0
p28: z3_3_8 >= 1.0
p29: z3_3_9 >= 1.0
p30: z3_4_5 >= 1.0
p31: z3_4_6 >= 1.0
p32: z3_4_7 >= 1.0
p33: z3_4_8 >= 1.0
p34: z3_4_9 >= 1.0
p35: z3_5_6 >= 1.0
p36: z3_5_7 >= 1.0
p37: z3_5_8 >= 1.0
p38: z3_5_9 >= 1.0
p39: z3_6_7 >= 1.0
p40: z3_6_8 >= 1.0
p41: z3_6_9 >= 1.0
p42: z3_7_8 >= 1.0
p43: z3_7_9 >= 1.0
p44: z3_8_9 >= 1.0
z0: - y$0 + h1_0_1 = 0
z1: - y$1 + h1_0_2 = 0
z2: - y$2 + h1_0_3 = 0
z3: - y$3 + h1_0_4 = 0
z4: - y$4 + h1_0_5 = 0
z5: - y$5 + h1_0_6 = 0
z6: - y$6 + h1_0_7 = 0
z7: - y$7 + h1_0_8 = 0
z8: - y$8 + h1_0_9 = 0
z9: - y$9 + h1_1_2 = 0
z10: - y$10 + h1_1_3 = 0
z11: - y$11 + h1_1_4 = 0
z12: - y$12 + h1_1_5 = 0
z13: - y$13 + h1_1_6 = 0
z14: - y$14 + h1_1_7 = 0
z15: - y$15 + h1_1_8 = 0
z16: - y$16 + h1_1_9 = 0
z17: - y$17 + h1_2_3 = 0
z18: - y$18 + h1_2_4 = 0
z19: - y$19 + h1_2_5 = 0
z20: - y$20 + h1_2_6 = 0
z21: - y$21 + h1_2_7 = 0
z22: - y$22 + h1_2_8 = 0
z23: - y$23 + h1_2_9 = 0
z24: - y$24 + h1_3_4 = 0
z25: - y$25 + h1_3_5 = 0
z26: - y$26 + h1_3_6 = 0
z27: - y$27 + h1_3_7 = 0
z28: - y$28 + h1_3_8 = 0
z29: - y$29 + h1_3_9 = 0
z30: - y$30 + h1_4_5 = 0
z31: - y$31 + h1_4_6 = 0
z32: - y$32 + h1_4_7 = 0
z33: - y$33 + h1_4_8 = 0
z34: - y$34 + h1_4_9 = 0
z35: - y$35 + h1_5_6 = 0
z36: - y$36 + h1_5_7 = 0
z37: - y$37 + h1_5_8 = 0
z38: - y$38 + h1_5_9 = 0
z39: - y$39 + h1_6_7 = 0
z40: - y$40 + h1_6_8 = 0
z41: - y$41 + h1_6_9 = 0
z42: - y$42 + h1_7_8 = 0
z43: - y$43 + h1_7_9 = 0
z44: - y$44 + h1_8_9 = 0
z45: - y$45 + h2_0_1 = 0
z46: - y$46 + h2_0_2 = 0
z47: - y$47 + h2_0_3 = 0
z48: - y$48 + h2_0_4 = 0
z49: - y$49 + h2_0_5 = 0
z50: - y$50 + h2_0_6 = 0
z51: - y$51 + h2_0_7 = 0
z52: - y$52 + h2_0_8 = 0
z53: - y$53 + h2_0_9 = 0
z54: - y$54 + h2_1_2 = 0
z55: - y$55 + h2_1_3 = 0
z56: - y$56 + h2_1_4 = 0
z57: - y$57 + h2_1_5 = 0
z58: - y$58 + h2_1_6 = 0
z59: - y$59 + h2_1_7 = 0
z60: - y$60 + h2_1_8 = 0
z61: - y$61 + h2_1_9 = 0
z62: - y$62 + h2_2_3 = 0
z63: - y$63 + h2_2_4 = 0
z64: - y$64 + h2_2_5 = 0
z65: - y$65 + h2_2_6 = 0
z66: - y$66 + h2_2_7 = 0
z67: - y$67 + h2_2_8 = 0
z68: - y$68 + h2_2_9 = 0
z69: - y$69 + h2_3_4 = 0
z70: - y$70 + h2_3_5 = 0
z71: - y$71 + h2_3_6 = 0
z72: - y$72 + h2_3_7 = 0
z73: - y$73 + h2_3_8 = 0
z74: - y$74 + h2_3_9 = 0
z75: - y$75 + h2_4_5 = 0
z76: - y$76 + h2_4_6 = 0
z77: - y$77 + h2_4_7 = 0
z78: - y$78 + h2_4_8 = 0
z79: - y$79 + h2_4_9 = 0
z80: - y$80 + h2_5_6 = 0
z81: - y$81 + h2_5_7 = 0
z82: - y$82 + h2_5_8 = 0
z83: - y$83 + h2_5_9 = 0
z84: - y$84 + h2_6_7 = 0
z85: - y$85 + h2_6_8 = 0
z86: - y$86 + h2_6_9 = 0
z87: - y$87 + h2_7_8 = 0
z88: - y$88 + h2_7_9 = 0
z89: - y$89 + h2_8_9 = 0
z90: - y$90 + h3_0_1 = 0
z91: - y$91 + h3_0_2 = 0
z92: - y$92 + h3_0_3 = 0
z93: - y$93 + h3_0_4 = 0
z94: - y$94 + h3_0_5 = 0
z95: - y$95 + h3_0_6 = 0
z96: - y$96 + h3_0_7 = 0
z97: - y$97 + h3_0_8 = 0
z98: - y$98 + h3_0_9 = 0
z99: - y$99 + h3_1_2 = 0
z100: - y$100 + h3_1_3 = 0
z101: - y$101 + h3_1_4 = 0
z102: - y$102 + h3_1_5 = 0
z103: - y$103 + h3_1_6 = 0
z104: - y$104 + h3_1_7 = 0
z105: - y$105 + h3_1_8 = 0
z106: - y$106 + h3_1_9 = 0
z107: - y$107 + h3_2_3 = 0
z108: - y$108 + h3_2_4 = 0
z109: - y$109 + h3_2_5 = 0
z110: - y$110 + h3_2_6 = 0
z111: - y$111 + h3_2_7 = 0
z112: - y$112 + h3_2_8 = 0
z113: - y$113 + h3_2_9 = 0
z114: - y$114 + h3_3_4 = 0
z115: - y$115 + h3_3_5 = 0
z116: - y$116 + h3_3_6 = 0
z117: - y$117 + h3_3_7 = 0
z118: - y$118 + h3_3_8 = 0
z119: - y$119 + h3_3_9 = 0
z120: - y$120 + h3_4_5 = 0
z121: - y$121 + h3_4_6 = 0
z122: - y$122 + h3_4_7 = 0
z123: - y$123 + h3_4_8 = 0
z124: - y$124 + h3_4_9 = 0
z125: - y$125 + h3_5_6 = 0
z126: - y$126 + h3_5_7 = 0
z127: - y$127 + h3_5_8 = 0
z128: - y$128 + h3_5_9 = 0
z129: - y$129 + h3_6_7 = 0
z130: - y$130 + h3_6_8 = 0
z131: - y$131 + h3_6_9 = 0
z132: - y$132 + h3_7_8 = 0
z133: - y$133 + h3_7_9 = 0
z134: - y$134 + h3_8_9 = 0


Bounds


x_0 <= 9
x_1 <= 9
x_2 <= 9
x_3 <= 9
x_4 <= 9
x_5 <= 9
x_6 <= 9
x_7 <= 9
x_8 <= 9
x_9 <= 9
y$0 free
y$1 free
y$2 free
y$3 free
y$4 free
y$5 free
y$6 free
y$7 free
y$8 free
y$9 free
y$10 free
y$11 free
y$12 free
y$13 free
y$14 free
y$15 free
y$16 free
y$17 free
y$18 free
y$19 free
y$20 free
y$21 free
y$22 free
y$23 free
y$24 free
y$25 free
y$26 free
y$27 free
y$28 free
y$29 free
y$30 free
y$31 free
y$32 free
y$33 free
y$34 free
y$35 free
y$36 free
y$37 free
y$38 free
y$39 free
y$40 free
y$41 free
y$42 free
y$43 free
y$44 free
y$45 free
y$46 free
y$47 free
y$48 free
y$49 free
y$50 free
y$51 free
y$52 free
y$53 free
y$54 free
y$55 free
y$56 free
y$57 free
y$58 free
y$59 free
y$60 free
y$61 free
y$62 free
y$63 free
y$64 free
y$65 free
y$66 free
y$67 free
y$68 free
y$69 free
y$70 free
y$71 free
y$72 free
y$73 free
y$74 free
y$75 free
y$76 free
y$77 free
y$78 free
y$79 free
y$80 free
y$81 free
y$82 free
y$83 free
y$84 free
y$85 free
y$86 free
y$87 free
y$88 free
y$89 free
y$90 free
y$91 free
y$92 free
y$93 free
y$94 free
y$95 free
y$96 free
y$97 free
y$98 free
y$99 free
y$100 free
y$101 free
y$102 free
y$103 free
y$104 free
y$105 free
y$106 free
y$107 free
y$108 free
y$109 free
y$110 free
y$111 free
y$112 free
y$113 free
y$114 free
y$115 free
y$116 free
y$117 free
y$118 free
y$119 free
y$120 free
y$121 free
y$122 free
y$123 free
y$124 free
y$125 free
y$126 free
y$127 free
y$128 free
y$129 free
y$130 free
y$131 free
y$132 free
y$133 free
y$134 free
h1_0_1 free
h1_0_2 free
h1_0_3 free
h1_0_4 free
h1_0_5 free
h1_0_6 free
h1_0_7 free
h1_0_8 free
h1_0_9 free
h1_1_2 free
h1_1_3 free
h1_1_4 free
h1_1_5 free
h1_1_6 free
h1_1_7 free
h1_1_8 free
h1_1_9 free
h1_2_3 free
h1_2_4 free
h1_2_5 free
h1_2_6 free
h1_2_7 free
h1_2_8 free
h1_2_9 free
h1_3_4 free
h1_3_5 free
h1_3_6 free
h1_3_7 free
h1_3_8 free
h1_3_9 free
h1_4_5 free
h1_4_6 free
h1_4_7 free
h1_4_8 free
h1_4_9 free
h1_5_6 free
h1_5_7 free
h1_5_8 free
h1_5_9 free
h1_6_7 free
h1_6_8 free
h1_6_9 free
h1_7_8 free
h1_7_9 free
h1_8_9 free
h2_0_1 free
h2_0_2 free
h2_0_3 free
h2_0_4 free
h2_0_5 free
h2_0_6 free
h2_0_7 free
h2_0_8 free
h2_0_9 free
h2_1_2 free
h2_1_3 free
h2_1_4 free
h2_1_5 free
h2_1_6 free
h2_1_7 free
h2_1_8 free
h2_1_9 free
h2_2_3 free
h2_2_4 free
h2_2_5 free
h2_2_6 free
h2_2_7 free
h2_2_8 free
h2_2_9 free
h2_3_4 free
h2_3_5 free
h2_3_6 free
h2_3_7 free
h2_3_8 free
h2_3_9 free
h2_4_5 free
h2_4_6 free
h2_4_7 free
h2_4_8 free
h2_4_9 free
h2_5_6 free
h2_5_7 free
h2_5_8 free
h2_5_9 free
h2_6_7 free
h2_6_8 free
h2_6_9 free
h2_7_8 free
h2_7_9 free
h2_8_9 free
h3_0_1 free
h3_0_2 free
h3_0_3 free
h3_0_4 free
h3_0_5 free
h3_0_6 free
h3_0_7 free
h3_0_8 free
h3_0_9 free
h3_1_2 free
h3_1_3 free
h3_1_4 free
h3_1_5 free
h3_1_6 free
h3_1_7 free
h3_1_8 free
h3_1_9 free
h3_2_3 free
h3_2_4 free
h3_2_5 free
h3_2_6 free
h3_2_7 free
h3_2_8 free
h3_2_9 free
h3_3_4 free
h3_3_5 free
h3_3_6 free
h3_3_7 free
h3_3_8 free
h3_3_9 free
h3_4_5 free
h3_4_6 free
h3_4_7 free
h3_4_8 free
h3_4_9 free
h3_5_6 free
h3_5_7 free
h3_5_8 free
h3_5_9 free
h3_6_7 free
h3_6_8 free
h3_6_9 free
h3_7_8 free
h3_7_9 free
h3_8_9 free


General

 x_0 x_1 x_2 x_3 x_4 x_5 x_6 x_7 x_8 x_9



General Constraints


gc0: z1_0_1 = ABS ( y$0 )
gc1: z1_0_2 = ABS ( y$1 )
gc2: z1_0_3 = ABS ( y$2 )
gc3: z1_0_4 = ABS ( y$3 )
gc4: z1_0_5 = ABS ( y$4 )
gc5: z1_0_6 = ABS ( y$5 )
gc6: z1_0_7 = ABS ( y$6 )
gc7: z1_0_8 = ABS ( y$7 )
gc8: z1_0_9 = ABS ( y$8 )
gc9: z1_1_2 = ABS ( y$9 )
gc10: z1_1_3 = ABS ( y$10 )
gc11: z1_1_4 = ABS ( y$11 )
gc12: z1_1_5 = ABS ( y$12 )
gc13: z1_1_6 = ABS ( y$13 )
gc14: z1_1_7 = ABS ( y$14 )
gc15: z1_1_8 = ABS ( y$15 )
gc16: z1_1_9 = ABS ( y$16 )
gc17: z1_2_3 = ABS ( y$17 )
gc18: z1_2_4 = ABS ( y$18 )
gc19: z1_2_5 = ABS ( y$19 )
gc20: z1_2_6 = ABS ( y$20 )
gc21: z1_2_7 = ABS ( y$21 )
gc22: z1_2_8 = ABS ( y$22 )
gc23: z1_2_9 = ABS ( y$23 )
gc24: z1_3_4 = ABS ( y$24 )
gc25: z1_3_5 = ABS ( y$25 )
gc26: z1_3_6 = ABS ( y$26 )
gc27: z1_3_7 = ABS ( y$27 )
gc28: z1_3_8 = ABS ( y$28 )
gc29: z1_3_9 = ABS ( y$29 )
gc30: z1_4_5 = ABS ( y$30 )
gc31: z1_4_6 = ABS ( y$31 )
gc32: z1_4_7 = ABS ( y$32 )
gc33: z1_4_8 = ABS ( y$33 )
gc34: z1_4_9 = ABS ( y$34 )
gc35: z1_5_6 = ABS ( y$35 )
gc36: z1_5_7 = ABS ( y$36 )
gc37: z1_5_8 = ABS ( y$37 )
gc38: z1_5_9 = ABS ( y$38 )
gc39: z1_6_7 = ABS ( y$39 )
gc40: z1_6_8 = ABS ( y$40 )
gc41: z1_6_9 = ABS ( y$41 )
gc42: z1_7_8 = ABS ( y$42 )
gc43: z1_7_9 = ABS ( y$43 )
gc44: z1_8_9 = ABS ( y$44 )
gc45: z2_0_1 = ABS ( y$45 )
gc46: z2_0_2 = ABS ( y$46 )
gc47: z2_0_3 = ABS ( y$47 )
gc48: z2_0_4 = ABS ( y$48 )
gc49: z2_0_5 = ABS ( y$49 )
gc50: z2_0_6 = ABS ( y$50 )
gc51: z2_0_7 = ABS ( y$51 )
gc52: z2_0_8 = ABS ( y$52 )
gc53: z2_0_9 = ABS ( y$53 )
gc54: z2_1_2 = ABS ( y$54 )
gc55: z2_1_3 = ABS ( y$55 )
gc56: z2_1_4 = ABS ( y$56 )
gc57: z2_1_5 = ABS ( y$57 )
gc58: z2_1_6 = ABS ( y$58 )
gc59: z2_1_7 = ABS ( y$59 )
gc60: z2_1_8 = ABS ( y$60 )
gc61: z2_1_9 = ABS ( y$61 )
gc62: z2_2_3 = ABS ( y$62 )
gc63: z2_2_4 = ABS ( y$63 )
gc64: z2_2_5 = ABS ( y$64 )
gc65: z2_2_6 = ABS ( y$65 )
gc66: z2_2_7 = ABS ( y$66 )
gc67: z2_2_8 = ABS ( y$67 )
gc68: z2_2_9 = ABS ( y$68 )
gc69: z2_3_4 = ABS ( y$69 )
gc70: z2_3_5 = ABS ( y$70 )
gc71: z2_3_6 = ABS ( y$71 )
gc72: z2_3_7 = ABS ( y$72 )
gc73: z2_3_8 = ABS ( y$73 )
gc74: z2_3_9 = ABS ( y$74 )
gc75: z2_4_5 = ABS ( y$75 )
gc76: z2_4_6 = ABS ( y$76 )
gc77: z2_4_7 = ABS ( y$77 )
gc78: z2_4_8 = ABS ( y$78 )
gc79: z2_4_9 = ABS ( y$79 )
gc80: z2_5_6 = ABS ( y$80 )
gc81: z2_5_7 = ABS ( y$81 )
gc82: z2_5_8 = ABS ( y$82 )
gc83: z2_5_9 = ABS ( y$83 )
gc84: z2_6_7 = ABS ( y$84 )
gc85: z2_6_8 = ABS ( y$85 )
gc86: z2_6_9 = ABS ( y$86 )
gc87: z2_7_8 = ABS ( y$87 )
gc88: z2_7_9 = ABS ( y$88 )
gc89: z2_8_9 = ABS ( y$89 )
gc90: z3_0_1 = ABS ( y$90 )
gc91: z3_0_2 = ABS ( y$91 )
gc92: z3_0_3 = ABS ( y$92 )
gc93: z3_0_4 = ABS ( y$93 )
gc94: z3_0_5 = ABS ( y$94 )
gc95: z3_0_6 = ABS ( y$95 )
gc96: z3_0_7 = ABS ( y$96 )
gc97: z3_0_8 = ABS ( y$97 )
gc98: z3_0_9 = ABS ( y$98 )
gc99: z3_1_2 = ABS ( y$99 )
gc100: z3_1_3 = ABS ( y$100 )
gc101: z3_1_4 = ABS ( y$101 )
gc102: z3_1_5 = ABS ( y$102 )
gc103: z3_1_6 = ABS ( y$103 )
gc104: z3_1_7 = ABS ( y$104 )
gc105: z3_1_8 = ABS ( y$105 )
gc106: z3_1_9 = ABS ( y$106 )
gc107: z3_2_3 = ABS ( y$107 )
gc108: z3_2_4 = ABS ( y$108 )
gc109: z3_2_5 = ABS ( y$109 )
gc110: z3_2_6 = ABS ( y$110 )
gc111: z3_2_7 = ABS ( y$111 )
gc112: z3_2_8 = ABS ( y$112 )
gc113: z3_2_9 = ABS ( y$113 )
gc114: z3_3_4 = ABS ( y$114 )
gc115: z3_3_5 = ABS ( y$115 )
gc116: z3_3_6 = ABS ( y$116 )
gc117: z3_3_7 = ABS ( y$117 )
gc118: z3_3_8 = ABS ( y$118 )
gc119: z3_3_9 = ABS ( y$119 )
gc120: z3_4_5 = ABS ( y$120 )
gc121: z3_4_6 = ABS ( y$121 )
gc122: z3_4_7 = ABS ( y$122 )
gc123: z3_4_8 = ABS ( y$123 )
gc124: z3_4_9 = ABS ( y$124 )
gc125: z3_5_6 = ABS ( y$125 )
gc126: z3_5_7 = ABS ( y$126 )
gc127: z3_5_8 = ABS ( y$127 )
gc128: z3_5_9 = ABS ( y$128 )
gc129: z3_6_7 = ABS ( y$129 )
gc130: z3_6_8 = ABS ( y$130 )
gc131: z3_6_9 = ABS ( y$131 )
gc132: z3_7_8 = ABS ( y$132 )
gc133: z3_7_9 = ABS ( y$133 )
gc134: z3_8_9 = ABS ( y$134 )

End
