Minimize

x_0


Subject To

a0: z1_0_1 = 1 -> x_0 - x_1 >= 1
a1: z1_0_2 = 1 -> x_0 - x_2 >= 1
a2: z1_0_3 = 1 -> x_0 - x_3 >= 1
a3: z1_0_4 = 1 -> x_0 - x_4 >= 1
a4: z1_0_5 = 1 -> x_0 - x_5 >= 1
a5: z1_0_6 = 1 -> x_0 - x_6 >= 1
a6: z1_0_7 = 1 -> x_0 - x_7 >= 1
a7: z1_0_8 = 1 -> x_0 - x_8 >= 1
a8: z1_0_9 = 1 -> x_0 - x_9 >= 1
a9: z1_0_10 = 1 -> x_0 - x_10 >= 1
a10: z1_0_11 = 1 -> x_0 - x_11 >= 1
a11: z1_0_12 = 1 -> x_0 - x_12 >= 1
a12: z1_0_13 = 1 -> x_0 - x_13 >= 1
a13: z1_0_14 = 1 -> x_0 - x_14 >= 1
a14: z1_0_15 = 1 -> x_0 - x_15 >= 1
a15: z1_0_16 = 1 -> x_0 - x_16 >= 1
a16: z1_0_17 = 1 -> x_0 - x_17 >= 1
a17: z1_0_18 = 1 -> x_0 - x_18 >= 1
a18: z1_0_19 = 1 -> x_0 - x_19 >= 1
a19: z1_0_20 = 1 -> x_0 - x_20 >= 1
a20: z1_0_21 = 1 -> x_0 - x_21 >= 1
a21: z1_0_22 = 1 -> x_0 - x_22 >= 1
a22: z1_0_23 = 1 -> x_0 - x_23 >= 1
a23: z1_0_24 = 1 -> x_0 - x_24 >= 1
a24: z1_0_25 = 1 -> x_0 - x_25 >= 1
a25: z1_0_26 = 1 -> x_0 - x_26 >= 1
a26: z1_0_27 = 1 -> x_0 - x_27 >= 1
a27: z1_0_28 = 1 -> x_0 - x_28 >= 1
a28: z1_0_29 = 1 -> x_0 - x_29 >= 1
a29: z1_0_30 = 1 -> x_0 - x_30 >= 1
a30: z1_0_31 = 1 -> x_0 - x_31 >= 1
a31: z1_0_32 = 1 -> x_0 - x_32 >= 1
a32: z1_0_33 = 1 -> x_0 - x_33 >= 1
a33: z1_0_34 = 1 -> x_0 - x_34 >= 1
a34: z1_0_35 = 1 -> x_0 - x_35 >= 1
a35: z1_0_36 = 1 -> x_0 - x_36 >= 1
a36: z1_0_37 = 1 -> x_0 - x_37 >= 1
a37: z1_0_38 = 1 -> x_0 - x_38 >= 1
a38: z1_0_39 = 1 -> x_0 - x_39 >= 1
a39: z1_0_40 = 1 -> x_0 - x_40 >= 1
a40: z1_0_41 = 1 -> x_0 - x_41 >= 1
a41: z1_0_42 = 1 -> x_0 - x_42 >= 1
a42: z1_0_43 = 1 -> x_0 - x_43 >= 1
a43: z1_0_44 = 1 -> x_0 - x_44 >= 1
a44: z1_0_45 = 1 -> x_0 - x_45 >= 1
a45: z1_0_46 = 1 -> x_0 - x_46 >= 1
a46: z1_0_47 = 1 -> x_0 - x_47 >= 1
a47: z1_0_48 = 1 -> x_0 - x_48 >= 1
a48: z1_0_49 = 1 -> x_0 - x_49 >= 1
a49: z1_1_2 = 1 -> x_1 - x_2 >= 1
a50: z1_1_3 = 1 -> x_1 - x_3 >= 1
a51: z1_1_4 = 1 -> x_1 - x_4 >= 1
a52: z1_1_5 = 1 -> x_1 - x_5 >= 1
a53: z1_1_6 = 1 -> x_1 - x_6 >= 1
a54: z1_1_7 = 1 -> x_1 - x_7 >= 1
a55: z1_1_8 = 1 -> x_1 - x_8 >= 1
a56: z1_1_9 = 1 -> x_1 - x_9 >= 1
a57: z1_1_10 = 1 -> x_1 - x_10 >= 1
a58: z1_1_11 = 1 -> x_1 - x_11 >= 1
a59: z1_1_12 = 1 -> x_1 - x_12 >= 1
a60: z1_1_13 = 1 -> x_1 - x_13 >= 1
a61: z1_1_14 = 1 -> x_1 - x_14 >= 1
a62: z1_1_15 = 1 -> x_1 - x_15 >= 1
a63: z1_1_16 = 1 -> x_1 - x_16 >= 1
a64: z1_1_17 = 1 -> x_1 - x_17 >= 1
a65: z1_1_18 = 1 -> x_1 - x_18 >= 1
a66: z1_1_19 = 1 -> x_1 - x_19 >= 1
a67: z1_1_20 = 1 -> x_1 - x_20 >= 1
a68: z1_1_21 = 1 -> x_1 - x_21 >= 1
a69: z1_1_22 = 1 -> x_1 - x_22 >= 1
a70: z1_1_23 = 1 -> x_1 - x_23 >= 1
a71: z1_1_24 = 1 -> x_1 - x_24 >= 1
a72: z1_1_25 = 1 -> x_1 - x_25 >= 1
a73: z1_1_26 = 1 -> x_1 - x_26 >= 1
a74: z1_1_27 = 1 -> x_1 - x_27 >= 1
a75: z1_1_28 = 1 -> x_1 - x_28 >= 1
a76: z1_1_29 = 1 -> x_1 - x_29 >= 1
a77: z1_1_30 = 1 -> x_1 - x_30 >= 1
a78: z1_1_31 = 1 -> x_1 - x_31 >= 1
a79: z1_1_32 = 1 -> x_1 - x_32 >= 1
a80: z1_1_33 = 1 -> x_1 - x_33 >= 1
a81: z1_1_34 = 1 -> x_1 - x_34 >= 1
a82: z1_1_35 = 1 -> x_1 - x_35 >= 1
a83: z1_1_36 = 1 -> x_1 - x_36 >= 1
a84: z1_1_37 = 1 -> x_1 - x_37 >= 1
a85: z1_1_38 = 1 -> x_1 - x_38 >= 1
a86: z1_1_39 = 1 -> x_1 - x_39 >= 1
a87: z1_1_40 = 1 -> x_1 - x_40 >= 1
a88: z1_1_41 = 1 -> x_1 - x_41 >= 1
a89: z1_1_42 = 1 -> x_1 - x_42 >= 1
a90: z1_1_43 = 1 -> x_1 - x_43 >= 1
a91: z1_1_44 = 1 -> x_1 - x_44 >= 1
a92: z1_1_45 = 1 -> x_1 - x_45 >= 1
a93: z1_1_46 = 1 -> x_1 - x_46 >= 1
a94: z1_1_47 = 1 -> x_1 - x_47 >= 1
a95: z1_1_48 = 1 -> x_1 - x_48 >= 1
a96: z1_1_49 = 1 -> x_1 - x_49 >= 1
a97: z1_2_3 = 1 -> x_2 - x_3 >= 1
a98: z1_2_4 = 1 -> x_2 - x_4 >= 1
a99: z1_2_5 = 1 -> x_2 - x_5 >= 1
a100: z1_2_6 = 1 -> x_2 - x_6 >= 1
a101: z1_2_7 = 1 -> x_2 - x_7 >= 1
a102: z1_2_8 = 1 -> x_2 - x_8 >= 1
a103: z1_2_9 = 1 -> x_2 - x_9 >= 1
a104: z1_2_10 = 1 -> x_2 - x_10 >= 1
a105: z1_2_11 = 1 -> x_2 - x_11 >= 1
a106: z1_2_12 = 1 -> x_2 - x_12 >= 1
a107: z1_2_13 = 1 -> x_2 - x_13 >= 1
a108: z1_2_14 = 1 -> x_2 - x_14 >= 1
a109: z1_2_15 = 1 -> x_2 - x_15 >= 1
a110: z1_2_16 = 1 -> x_2 - x_16 >= 1
a111: z1_2_17 = 1 -> x_2 - x_17 >= 1
a112: z1_2_18 = 1 -> x_2 - x_18 >= 1
a113: z1_2_19 = 1 -> x_2 - x_19 >= 1
a114: z1_2_20 = 1 -> x_2 - x_20 >= 1
a115: z1_2_21 = 1 -> x_2 - x_21 >= 1
a116: z1_2_22 = 1 -> x_2 - x_22 >= 1
a117: z1_2_23 = 1 -> x_2 - x_23 >= 1
a118: z1_2_24 = 1 -> x_2 - x_24 >= 1
a119: z1_2_25 = 1 -> x_2 - x_25 >= 1
a120: z1_2_26 = 1 -> x_2 - x_26 >= 1
a121: z1_2_27 = 1 -> x_2 - x_27 >= 1
a122: z1_2_28 = 1 -> x_2 - x_28 >= 1
a123: z1_2_29 = 1 -> x_2 - x_29 >= 1
a124: z1_2_30 = 1 -> x_2 - x_30 >= 1
a125: z1_2_31 = 1 -> x_2 - x_31 >= 1
a126: z1_2_32 = 1 -> x_2 - x_32 >= 1
a127: z1_2_33 = 1 -> x_2 - x_33 >= 1
a128: z1_2_34 = 1 -> x_2 - x_34 >= 1
a129: z1_2_35 = 1 -> x_2 - x_35 >= 1
a130: z1_2_36 = 1 -> x_2 - x_36 >= 1
a131: z1_2_37 = 1 -> x_2 - x_37 >= 1
a132: z1_2_38 = 1 -> x_2 - x_38 >= 1
a133: z1_2_39 = 1 -> x_2 - x_39 >= 1
a134: z1_2_40 = 1 -> x_2 - x_40 >= 1
a135: z1_2_41 = 1 -> x_2 - x_41 >= 1
a136: z1_2_42 = 1 -> x_2 - x_42 >= 1
a137: z1_2_43 = 1 -> x_2 - x_43 >= 1
a138: z1_2_44 = 1 -> x_2 - x_44 >= 1
a139: z1_2_45 = 1 -> x_2 - x_45 >= 1
a140: z1_2_46 = 1 -> x_2 - x_46 >= 1
a141: z1_2_47 = 1 -> x_2 - x_47 >= 1
a142: z1_2_48 = 1 -> x_2 - x_48 >= 1
a143: z1_2_49 = 1 -> x_2 - x_49 >= 1
a144: z1_3_4 = 1 -> x_3 - x_4 >= 1
a145: z1_3_5 = 1 -> x_3 - x_5 >= 1
a146: z1_3_6 = 1 -> x_3 - x_6 >= 1
a147: z1_3_7 = 1 -> x_3 - x_7 >= 1
a148: z1_3_8 = 1 -> x_3 - x_8 >= 1
a149: z1_3_9 = 1 -> x_3 - x_9 >= 1
a150: z1_3_10 = 1 -> x_3 - x_10 >= 1
a151: z1_3_11 = 1 -> x_3 - x_11 >= 1
a152: z1_3_12 = 1 -> x_3 - x_12 >= 1
a153: z1_3_13 = 1 -> x_3 - x_13 >= 1
a154: z1_3_14 = 1 -> x_3 - x_14 >= 1
a155: z1_3_15 = 1 -> x_3 - x_15 >= 1
a156: z1_3_16 = 1 -> x_3 - x_16 >= 1
a157: z1_3_17 = 1 -> x_3 - x_17 >= 1
a158: z1_3_18 = 1 -> x_3 - x_18 >= 1
a159: z1_3_19 = 1 -> x_3 - x_19 >= 1
a160: z1_3_20 = 1 -> x_3 - x_20 >= 1
a161: z1_3_21 = 1 -> x_3 - x_21 >= 1
a162: z1_3_22 = 1 -> x_3 - x_22 >= 1
a163: z1_3_23 = 1 -> x_3 - x_23 >= 1
a164: z1_3_24 = 1 -> x_3 - x_24 >= 1
a165: z1_3_25 = 1 -> x_3 - x_25 >= 1
a166: z1_3_26 = 1 -> x_3 - x_26 >= 1
a167: z1_3_27 = 1 -> x_3 - x_27 >= 1
a168: z1_3_28 = 1 -> x_3 - x_28 >= 1
a169: z1_3_29 = 1 -> x_3 - x_29 >= 1
a170: z1_3_30 = 1 -> x_3 - x_30 >= 1
a171: z1_3_31 = 1 -> x_3 - x_31 >= 1
a172: z1_3_32 = 1 -> x_3 - x_32 >= 1
a173: z1_3_33 = 1 -> x_3 - x_33 >= 1
a174: z1_3_34 = 1 -> x_3 - x_34 >= 1
a175: z1_3_35 = 1 -> x_3 - x_35 >= 1
a176: z1_3_36 = 1 -> x_3 - x_36 >= 1
a177: z1_3_37 = 1 -> x_3 - x_37 >= 1
a178: z1_3_38 = 1 -> x_3 - x_38 >= 1
a179: z1_3_39 = 1 -> x_3 - x_39 >= 1
a180: z1_3_40 = 1 -> x_3 - x_40 >= 1
a181: z1_3_41 = 1 -> x_3 - x_41 >= 1
a182: z1_3_42 = 1 -> x_3 - x_42 >= 1
a183: z1_3_43 = 1 -> x_3 - x_43 >= 1
a184: z1_3_44 = 1 -> x_3 - x_44 >= 1
a185: z1_3_45 = 1 -> x_3 - x_45 >= 1
a186: z1_3_46 = 1 -> x_3 - x_46 >= 1
a187: z1_3_47 = 1 -> x_3 - x_47 >= 1
a188: z1_3_48 = 1 -> x_3 - x_48 >= 1
a189: z1_3_49 = 1 -> x_3 - x_49 >= 1
a190: z1_4_5 = 1 -> x_4 - x_5 >= 1
a191: z1_4_6 = 1 -> x_4 - x_6 >= 1
a192: z1_4_7 = 1 -> x_4 - x_7 >= 1
a193: z1_4_8 = 1 -> x_4 - x_8 >= 1
a194: z1_4_9 = 1 -> x_4 - x_9 >= 1
a195: z1_4_10 = 1 -> x_4 - x_10 >= 1
a196: z1_4_11 = 1 -> x_4 - x_11 >= 1
a197: z1_4_12 = 1 -> x_4 - x_12 >= 1
a198: z1_4_13 = 1 -> x_4 - x_13 >= 1
a199: z1_4_14 = 1 -> x_4 - x_14 >= 1
a200: z1_4_15 = 1 -> x_4 - x_15 >= 1
a201: z1_4_16 = 1 -> x_4 - x_16 >= 1
a202: z1_4_17 = 1 -> x_4 - x_17 >= 1
a203: z1_4_18 = 1 -> x_4 - x_18 >= 1
a204: z1_4_19 = 1 -> x_4 - x_19 >= 1
a205: z1_4_20 = 1 -> x_4 - x_20 >= 1
a206: z1_4_21 = 1 -> x_4 - x_21 >= 1
a207: z1_4_22 = 1 -> x_4 - x_22 >= 1
a208: z1_4_23 = 1 -> x_4 - x_23 >= 1
a209: z1_4_24 = 1 -> x_4 - x_24 >= 1
a210: z1_4_25 = 1 -> x_4 - x_25 >= 1
a211: z1_4_26 = 1 -> x_4 - x_26 >= 1
a212: z1_4_27 = 1 -> x_4 - x_27 >= 1
a213: z1_4_28 = 1 -> x_4 - x_28 >= 1
a214: z1_4_29 = 1 -> x_4 - x_29 >= 1
a215: z1_4_30 = 1 -> x_4 - x_30 >= 1
a216: z1_4_31 = 1 -> x_4 - x_31 >= 1
a217: z1_4_32 = 1 -> x_4 - x_32 >= 1
a218: z1_4_33 = 1 -> x_4 - x_33 >= 1
a219: z1_4_34 = 1 -> x_4 - x_34 >= 1
a220: z1_4_35 = 1 -> x_4 - x_35 >= 1
a221: z1_4_36 = 1 -> x_4 - x_36 >= 1
a222: z1_4_37 = 1 -> x_4 - x_37 >= 1
a223: z1_4_38 = 1 -> x_4 - x_38 >= 1
a224: z1_4_39 = 1 -> x_4 - x_39 >= 1
a225: z1_4_40 = 1 -> x_4 - x_40 >= 1
a226: z1_4_41 = 1 -> x_4 - x_41 >= 1
a227: z1_4_42 = 1 -> x_4 - x_42 >= 1
a228: z1_4_43 = 1 -> x_4 - x_43 >= 1
a229: z1_4_44 = 1 -> x_4 - x_44 >= 1
a230: z1_4_45 = 1 -> x_4 - x_45 >= 1
a231: z1_4_46 = 1 -> x_4 - x_46 >= 1
a232: z1_4_47 = 1 -> x_4 - x_47 >= 1
a233: z1_4_48 = 1 -> x_4 - x_48 >= 1
a234: z1_4_49 = 1 -> x_4 - x_49 >= 1
a235: z1_5_6 = 1 -> x_5 - x_6 >= 1
a236: z1_5_7 = 1 -> x_5 - x_7 >= 1
a237: z1_5_8 = 1 -> x_5 - x_8 >= 1
a238: z1_5_9 = 1 -> x_5 - x_9 >= 1
a239: z1_5_10 = 1 -> x_5 - x_10 >= 1
a240: z1_5_11 = 1 -> x_5 - x_11 >= 1
a241: z1_5_12 = 1 -> x_5 - x_12 >= 1
a242: z1_5_13 = 1 -> x_5 - x_13 >= 1
a243: z1_5_14 = 1 -> x_5 - x_14 >= 1
a244: z1_5_15 = 1 -> x_5 - x_15 >= 1
a245: z1_5_16 = 1 -> x_5 - x_16 >= 1
a246: z1_5_17 = 1 -> x_5 - x_17 >= 1
a247: z1_5_18 = 1 -> x_5 - x_18 >= 1
a248: z1_5_19 = 1 -> x_5 - x_19 >= 1
a249: z1_5_20 = 1 -> x_5 - x_20 >= 1
a250: z1_5_21 = 1 -> x_5 - x_21 >= 1
a251: z1_5_22 = 1 -> x_5 - x_22 >= 1
a252: z1_5_23 = 1 -> x_5 - x_23 >= 1
a253: z1_5_24 = 1 -> x_5 - x_24 >= 1
a254: z1_5_25 = 1 -> x_5 - x_25 >= 1
a255: z1_5_26 = 1 -> x_5 - x_26 >= 1
a256: z1_5_27 = 1 -> x_5 - x_27 >= 1
a257: z1_5_28 = 1 -> x_5 - x_28 >= 1
a258: z1_5_29 = 1 -> x_5 - x_29 >= 1
a259: z1_5_30 = 1 -> x_5 - x_30 >= 1
a260: z1_5_31 = 1 -> x_5 - x_31 >= 1
a261: z1_5_32 = 1 -> x_5 - x_32 >= 1
a262: z1_5_33 = 1 -> x_5 - x_33 >= 1
a263: z1_5_34 = 1 -> x_5 - x_34 >= 1
a264: z1_5_35 = 1 -> x_5 - x_35 >= 1
a265: z1_5_36 = 1 -> x_5 - x_36 >= 1
a266: z1_5_37 = 1 -> x_5 - x_37 >= 1
a267: z1_5_38 = 1 -> x_5 - x_38 >= 1
a268: z1_5_39 = 1 -> x_5 - x_39 >= 1
a269: z1_5_40 = 1 -> x_5 - x_40 >= 1
a270: z1_5_41 = 1 -> x_5 - x_41 >= 1
a271: z1_5_42 = 1 -> x_5 - x_42 >= 1
a272: z1_5_43 = 1 -> x_5 - x_43 >= 1
a273: z1_5_44 = 1 -> x_5 - x_44 >= 1
a274: z1_5_45 = 1 -> x_5 - x_45 >= 1
a275: z1_5_46 = 1 -> x_5 - x_46 >= 1
a276: z1_5_47 = 1 -> x_5 - x_47 >= 1
a277: z1_5_48 = 1 -> x_5 - x_48 >= 1
a278: z1_5_49 = 1 -> x_5 - x_49 >= 1
a279: z1_6_7 = 1 -> x_6 - x_7 >= 1
a280: z1_6_8 = 1 -> x_6 - x_8 >= 1
a281: z1_6_9 = 1 -> x_6 - x_9 >= 1
a282: z1_6_10 = 1 -> x_6 - x_10 >= 1
a283: z1_6_11 = 1 -> x_6 - x_11 >= 1
a284: z1_6_12 = 1 -> x_6 - x_12 >= 1
a285: z1_6_13 = 1 -> x_6 - x_13 >= 1
a286: z1_6_14 = 1 -> x_6 - x_14 >= 1
a287: z1_6_15 = 1 -> x_6 - x_15 >= 1
a288: z1_6_16 = 1 -> x_6 - x_16 >= 1
a289: z1_6_17 = 1 -> x_6 - x_17 >= 1
a290: z1_6_18 = 1 -> x_6 - x_18 >= 1
a291: z1_6_19 = 1 -> x_6 - x_19 >= 1
a292: z1_6_20 = 1 -> x_6 - x_20 >= 1
a293: z1_6_21 = 1 -> x_6 - x_21 >= 1
a294: z1_6_22 = 1 -> x_6 - x_22 >= 1
a295: z1_6_23 = 1 -> x_6 - x_23 >= 1
a296: z1_6_24 = 1 -> x_6 - x_24 >= 1
a297: z1_6_25 = 1 -> x_6 - x_25 >= 1
a298: z1_6_26 = 1 -> x_6 - x_26 >= 1
a299: z1_6_27 = 1 -> x_6 - x_27 >= 1
a300: z1_6_28 = 1 -> x_6 - x_28 >= 1
a301: z1_6_29 = 1 -> x_6 - x_29 >= 1
a302: z1_6_30 = 1 -> x_6 - x_30 >= 1
a303: z1_6_31 = 1 -> x_6 - x_31 >= 1
a304: z1_6_32 = 1 -> x_6 - x_32 >= 1
a305: z1_6_33 = 1 -> x_6 - x_33 >= 1
a306: z1_6_34 = 1 -> x_6 - x_34 >= 1
a307: z1_6_35 = 1 -> x_6 - x_35 >= 1
a308: z1_6_36 = 1 -> x_6 - x_36 >= 1
a309: z1_6_37 = 1 -> x_6 - x_37 >= 1
a310: z1_6_38 = 1 -> x_6 - x_38 >= 1
a311: z1_6_39 = 1 -> x_6 - x_39 >= 1
a312: z1_6_40 = 1 -> x_6 - x_40 >= 1
a313: z1_6_41 = 1 -> x_6 - x_41 >= 1
a314: z1_6_42 = 1 -> x_6 - x_42 >= 1
a315: z1_6_43 = 1 -> x_6 - x_43 >= 1
a316: z1_6_44 = 1 -> x_6 - x_44 >= 1
a317: z1_6_45 = 1 -> x_6 - x_45 >= 1
a318: z1_6_46 = 1 -> x_6 - x_46 >= 1
a319: z1_6_47 = 1 -> x_6 - x_47 >= 1
a320: z1_6_48 = 1 -> x_6 - x_48 >= 1
a321: z1_6_49 = 1 -> x_6 - x_49 >= 1
a322: z1_7_8 = 1 -> x_7 - x_8 >= 1
a323: z1_7_9 = 1 -> x_7 - x_9 >= 1
a324: z1_7_10 = 1 -> x_7 - x_10 >= 1
a325: z1_7_11 = 1 -> x_7 - x_11 >= 1
a326: z1_7_12 = 1 -> x_7 - x_12 >= 1
a327: z1_7_13 = 1 -> x_7 - x_13 >= 1
a328: z1_7_14 = 1 -> x_7 - x_14 >= 1
a329: z1_7_15 = 1 -> x_7 - x_15 >= 1
a330: z1_7_16 = 1 -> x_7 - x_16 >= 1
a331: z1_7_17 = 1 -> x_7 - x_17 >= 1
a332: z1_7_18 = 1 -> x_7 - x_18 >= 1
a333: z1_7_19 = 1 -> x_7 - x_19 >= 1
a334: z1_7_20 = 1 -> x_7 - x_20 >= 1
a335: z1_7_21 = 1 -> x_7 - x_21 >= 1
a336: z1_7_22 = 1 -> x_7 - x_22 >= 1
a337: z1_7_23 = 1 -> x_7 - x_23 >= 1
a338: z1_7_24 = 1 -> x_7 - x_24 >= 1
a339: z1_7_25 = 1 -> x_7 - x_25 >= 1
a340: z1_7_26 = 1 -> x_7 - x_26 >= 1
a341: z1_7_27 = 1 -> x_7 - x_27 >= 1
a342: z1_7_28 = 1 -> x_7 - x_28 >= 1
a343: z1_7_29 = 1 -> x_7 - x_29 >= 1
a344: z1_7_30 = 1 -> x_7 - x_30 >= 1
a345: z1_7_31 = 1 -> x_7 - x_31 >= 1
a346: z1_7_32 = 1 -> x_7 - x_32 >= 1
a347: z1_7_33 = 1 -> x_7 - x_33 >= 1
a348: z1_7_34 = 1 -> x_7 - x_34 >= 1
a349: z1_7_35 = 1 -> x_7 - x_35 >= 1
a350: z1_7_36 = 1 -> x_7 - x_36 >= 1
a351: z1_7_37 = 1 -> x_7 - x_37 >= 1
a352: z1_7_38 = 1 -> x_7 - x_38 >= 1
a353: z1_7_39 = 1 -> x_7 - x_39 >= 1
a354: z1_7_40 = 1 -> x_7 - x_40 >= 1
a355: z1_7_41 = 1 -> x_7 - x_41 >= 1
a356: z1_7_42 = 1 -> x_7 - x_42 >= 1
a357: z1_7_43 = 1 -> x_7 - x_43 >= 1
a358: z1_7_44 = 1 -> x_7 - x_44 >= 1
a359: z1_7_45 = 1 -> x_7 - x_45 >= 1
a360: z1_7_46 = 1 -> x_7 - x_46 >= 1
a361: z1_7_47 = 1 -> x_7 - x_47 >= 1
a362: z1_7_48 = 1 -> x_7 - x_48 >= 1
a363: z1_7_49 = 1 -> x_7 - x_49 >= 1
a364: z1_8_9 = 1 -> x_8 - x_9 >= 1
a365: z1_8_10 = 1 -> x_8 - x_10 >= 1
a366: z1_8_11 = 1 -> x_8 - x_11 >= 1
a367: z1_8_12 = 1 -> x_8 - x_12 >= 1
a368: z1_8_13 = 1 -> x_8 - x_13 >= 1
a369: z1_8_14 = 1 -> x_8 - x_14 >= 1
a370: z1_8_15 = 1 -> x_8 - x_15 >= 1
a371: z1_8_16 = 1 -> x_8 - x_16 >= 1
a372: z1_8_17 = 1 -> x_8 - x_17 >= 1
a373: z1_8_18 = 1 -> x_8 - x_18 >= 1
a374: z1_8_19 = 1 -> x_8 - x_19 >= 1
a375: z1_8_20 = 1 -> x_8 - x_20 >= 1
a376: z1_8_21 = 1 -> x_8 - x_21 >= 1
a377: z1_8_22 = 1 -> x_8 - x_22 >= 1
a378: z1_8_23 = 1 -> x_8 - x_23 >= 1
a379: z1_8_24 = 1 -> x_8 - x_24 >= 1
a380: z1_8_25 = 1 -> x_8 - x_25 >= 1
a381: z1_8_26 = 1 -> x_8 - x_26 >= 1
a382: z1_8_27 = 1 -> x_8 - x_27 >= 1
a383: z1_8_28 = 1 -> x_8 - x_28 >= 1
a384: z1_8_29 = 1 -> x_8 - x_29 >= 1
a385: z1_8_30 = 1 -> x_8 - x_30 >= 1
a386: z1_8_31 = 1 -> x_8 - x_31 >= 1
a387: z1_8_32 = 1 -> x_8 - x_32 >= 1
a388: z1_8_33 = 1 -> x_8 - x_33 >= 1
a389: z1_8_34 = 1 -> x_8 - x_34 >= 1
a390: z1_8_35 = 1 -> x_8 - x_35 >= 1
a391: z1_8_36 = 1 -> x_8 - x_36 >= 1
a392: z1_8_37 = 1 -> x_8 - x_37 >= 1
a393: z1_8_38 = 1 -> x_8 - x_38 >= 1
a394: z1_8_39 = 1 -> x_8 - x_39 >= 1
a395: z1_8_40 = 1 -> x_8 - x_40 >= 1
a396: z1_8_41 = 1 -> x_8 - x_41 >= 1
a397: z1_8_42 = 1 -> x_8 - x_42 >= 1
a398: z1_8_43 = 1 -> x_8 - x_43 >= 1
a399: z1_8_44 = 1 -> x_8 - x_44 >= 1
a400: z1_8_45 = 1 -> x_8 - x_45 >= 1
a401: z1_8_46 = 1 -> x_8 - x_46 >= 1
a402: z1_8_47 = 1 -> x_8 - x_47 >= 1
a403: z1_8_48 = 1 -> x_8 - x_48 >= 1
a404: z1_8_49 = 1 -> x_8 - x_49 >= 1
a405: z1_9_10 = 1 -> x_9 - x_10 >= 1
a406: z1_9_11 = 1 -> x_9 - x_11 >= 1
a407: z1_9_12 = 1 -> x_9 - x_12 >= 1
a408: z1_9_13 = 1 -> x_9 - x_13 >= 1
a409: z1_9_14 = 1 -> x_9 - x_14 >= 1
a410: z1_9_15 = 1 -> x_9 - x_15 >= 1
a411: z1_9_16 = 1 -> x_9 - x_16 >= 1
a412: z1_9_17 = 1 -> x_9 - x_17 >= 1
a413: z1_9_18 = 1 -> x_9 - x_18 >= 1
a414: z1_9_19 = 1 -> x_9 - x_19 >= 1
a415: z1_9_20 = 1 -> x_9 - x_20 >= 1
a416: z1_9_21 = 1 -> x_9 - x_21 >= 1
a417: z1_9_22 = 1 -> x_9 - x_22 >= 1
a418: z1_9_23 = 1 -> x_9 - x_23 >= 1
a419: z1_9_24 = 1 -> x_9 - x_24 >= 1
a420: z1_9_25 = 1 -> x_9 - x_25 >= 1
a421: z1_9_26 = 1 -> x_9 - x_26 >= 1
a422: z1_9_27 = 1 -> x_9 - x_27 >= 1
a423: z1_9_28 = 1 -> x_9 - x_28 >= 1
a424: z1_9_29 = 1 -> x_9 - x_29 >= 1
a425: z1_9_30 = 1 -> x_9 - x_30 >= 1
a426: z1_9_31 = 1 -> x_9 - x_31 >= 1
a427: z1_9_32 = 1 -> x_9 - x_32 >= 1
a428: z1_9_33 = 1 -> x_9 - x_33 >= 1
a429: z1_9_34 = 1 -> x_9 - x_34 >= 1
a430: z1_9_35 = 1 -> x_9 - x_35 >= 1
a431: z1_9_36 = 1 -> x_9 - x_36 >= 1
a432: z1_9_37 = 1 -> x_9 - x_37 >= 1
a433: z1_9_38 = 1 -> x_9 - x_38 >= 1
a434: z1_9_39 = 1 -> x_9 - x_39 >= 1
a435: z1_9_40 = 1 -> x_9 - x_40 >= 1
a436: z1_9_41 = 1 -> x_9 - x_41 >= 1
a437: z1_9_42 = 1 -> x_9 - x_42 >= 1
a438: z1_9_43 = 1 -> x_9 - x_43 >= 1
a439: z1_9_44 = 1 -> x_9 - x_44 >= 1
a440: z1_9_45 = 1 -> x_9 - x_45 >= 1
a441: z1_9_46 = 1 -> x_9 - x_46 >= 1
a442: z1_9_47 = 1 -> x_9 - x_47 >= 1
a443: z1_9_48 = 1 -> x_9 - x_48 >= 1
a444: z1_9_49 = 1 -> x_9 - x_49 >= 1
a445: z1_10_11 = 1 -> x_10 - x_11 >= 1
a446: z1_10_12 = 1 -> x_10 - x_12 >= 1
a447: z1_10_13 = 1 -> x_10 - x_13 >= 1
a448: z1_10_14 = 1 -> x_10 - x_14 >= 1
a449: z1_10_15 = 1 -> x_10 - x_15 >= 1
a450: z1_10_16 = 1 -> x_10 - x_16 >= 1
a451: z1_10_17 = 1 -> x_10 - x_17 >= 1
a452: z1_10_18 = 1 -> x_10 - x_18 >= 1
a453: z1_10_19 = 1 -> x_10 - x_19 >= 1
a454: z1_10_20 = 1 -> x_10 - x_20 >= 1
a455: z1_10_21 = 1 -> x_10 - x_21 >= 1
a456: z1_10_22 = 1 -> x_10 - x_22 >= 1
a457: z1_10_23 = 1 -> x_10 - x_23 >= 1
a458: z1_10_24 = 1 -> x_10 - x_24 >= 1
a459: z1_10_25 = 1 -> x_10 - x_25 >= 1
a460: z1_10_26 = 1 -> x_10 - x_26 >= 1
a461: z1_10_27 = 1 -> x_10 - x_27 >= 1
a462: z1_10_28 = 1 -> x_10 - x_28 >= 1
a463: z1_10_29 = 1 -> x_10 - x_29 >= 1
a464: z1_10_30 = 1 -> x_10 - x_30 >= 1
a465: z1_10_31 = 1 -> x_10 - x_31 >= 1
a466: z1_10_32 = 1 -> x_10 - x_32 >= 1
a467: z1_10_33 = 1 -> x_10 - x_33 >= 1
a468: z1_10_34 = 1 -> x_10 - x_34 >= 1
a469: z1_10_35 = 1 -> x_10 - x_35 >= 1
a470: z1_10_36 = 1 -> x_10 - x_36 >= 1
a471: z1_10_37 = 1 -> x_10 - x_37 >= 1
a472: z1_10_38 = 1 -> x_10 - x_38 >= 1
a473: z1_10_39 = 1 -> x_10 - x_39 >= 1
a474: z1_10_40 = 1 -> x_10 - x_40 >= 1
a475: z1_10_41 = 1 -> x_10 - x_41 >= 1
a476: z1_10_42 = 1 -> x_10 - x_42 >= 1
a477: z1_10_43 = 1 -> x_10 - x_43 >= 1
a478: z1_10_44 = 1 -> x_10 - x_44 >= 1
a479: z1_10_45 = 1 -> x_10 - x_45 >= 1
a480: z1_10_46 = 1 -> x_10 - x_46 >= 1
a481: z1_10_47 = 1 -> x_10 - x_47 >= 1
a482: z1_10_48 = 1 -> x_10 - x_48 >= 1
a483: z1_10_49 = 1 -> x_10 - x_49 >= 1
a484: z1_11_12 = 1 -> x_11 - x_12 >= 1
a485: z1_11_13 = 1 -> x_11 - x_13 >= 1
a486: z1_11_14 = 1 -> x_11 - x_14 >= 1
a487: z1_11_15 = 1 -> x_11 - x_15 >= 1
a488: z1_11_16 = 1 -> x_11 - x_16 >= 1
a489: z1_11_17 = 1 -> x_11 - x_17 >= 1
a490: z1_11_18 = 1 -> x_11 - x_18 >= 1
a491: z1_11_19 = 1 -> x_11 - x_19 >= 1
a492: z1_11_20 = 1 -> x_11 - x_20 >= 1
a493: z1_11_21 = 1 -> x_11 - x_21 >= 1
a494: z1_11_22 = 1 -> x_11 - x_22 >= 1
a495: z1_11_23 = 1 -> x_11 - x_23 >= 1
a496: z1_11_24 = 1 -> x_11 - x_24 >= 1
a497: z1_11_25 = 1 -> x_11 - x_25 >= 1
a498: z1_11_26 = 1 -> x_11 - x_26 >= 1
a499: z1_11_27 = 1 -> x_11 - x_27 >= 1
a500: z1_11_28 = 1 -> x_11 - x_28 >= 1
a501: z1_11_29 = 1 -> x_11 - x_29 >= 1
a502: z1_11_30 = 1 -> x_11 - x_30 >= 1
a503: z1_11_31 = 1 -> x_11 - x_31 >= 1
a504: z1_11_32 = 1 -> x_11 - x_32 >= 1
a505: z1_11_33 = 1 -> x_11 - x_33 >= 1
a506: z1_11_34 = 1 -> x_11 - x_34 >= 1
a507: z1_11_35 = 1 -> x_11 - x_35 >= 1
a508: z1_11_36 = 1 -> x_11 - x_36 >= 1
a509: z1_11_37 = 1 -> x_11 - x_37 >= 1
a510: z1_11_38 = 1 -> x_11 - x_38 >= 1
a511: z1_11_39 = 1 -> x_11 - x_39 >= 1
a512: z1_11_40 = 1 -> x_11 - x_40 >= 1
a513: z1_11_41 = 1 -> x_11 - x_41 >= 1
a514: z1_11_42 = 1 -> x_11 - x_42 >= 1
a515: z1_11_43 = 1 -> x_11 - x_43 >= 1
a516: z1_11_44 = 1 -> x_11 - x_44 >= 1
a517: z1_11_45 = 1 -> x_11 - x_45 >= 1
a518: z1_11_46 = 1 -> x_11 - x_46 >= 1
a519: z1_11_47 = 1 -> x_11 - x_47 >= 1
a520: z1_11_48 = 1 -> x_11 - x_48 >= 1
a521: z1_11_49 = 1 -> x_11 - x_49 >= 1
a522: z1_12_13 = 1 -> x_12 - x_13 >= 1
a523: z1_12_14 = 1 -> x_12 - x_14 >= 1
a524: z1_12_15 = 1 -> x_12 - x_15 >= 1
a525: z1_12_16 = 1 -> x_12 - x_16 >= 1
a526: z1_12_17 = 1 -> x_12 - x_17 >= 1
a527: z1_12_18 = 1 -> x_12 - x_18 >= 1
a528: z1_12_19 = 1 -> x_12 - x_19 >= 1
a529: z1_12_20 = 1 -> x_12 - x_20 >= 1
a530: z1_12_21 = 1 -> x_12 - x_21 >= 1
a531: z1_12_22 = 1 -> x_12 - x_22 >= 1
a532: z1_12_23 = 1 -> x_12 - x_23 >= 1
a533: z1_12_24 = 1 -> x_12 - x_24 >= 1
a534: z1_12_25 = 1 -> x_12 - x_25 >= 1
a535: z1_12_26 = 1 -> x_12 - x_26 >= 1
a536: z1_12_27 = 1 -> x_12 - x_27 >= 1
a537: z1_12_28 = 1 -> x_12 - x_28 >= 1
a538: z1_12_29 = 1 -> x_12 - x_29 >= 1
a539: z1_12_30 = 1 -> x_12 - x_30 >= 1
a540: z1_12_31 = 1 -> x_12 - x_31 >= 1
a541: z1_12_32 = 1 -> x_12 - x_32 >= 1
a542: z1_12_33 = 1 -> x_12 - x_33 >= 1
a543: z1_12_34 = 1 -> x_12 - x_34 >= 1
a544: z1_12_35 = 1 -> x_12 - x_35 >= 1
a545: z1_12_36 = 1 -> x_12 - x_36 >= 1
a546: z1_12_37 = 1 -> x_12 - x_37 >= 1
a547: z1_12_38 = 1 -> x_12 - x_38 >= 1
a548: z1_12_39 = 1 -> x_12 - x_39 >= 1
a549: z1_12_40 = 1 -> x_12 - x_40 >= 1
a550: z1_12_41 = 1 -> x_12 - x_41 >= 1
a551: z1_12_42 = 1 -> x_12 - x_42 >= 1
a552: z1_12_43 = 1 -> x_12 - x_43 >= 1
a553: z1_12_44 = 1 -> x_12 - x_44 >= 1
a554: z1_12_45 = 1 -> x_12 - x_45 >= 1
a555: z1_12_46 = 1 -> x_12 - x_46 >= 1
a556: z1_12_47 = 1 -> x_12 - x_47 >= 1
a557: z1_12_48 = 1 -> x_12 - x_48 >= 1
a558: z1_12_49 = 1 -> x_12 - x_49 >= 1
a559: z1_13_14 = 1 -> x_13 - x_14 >= 1
a560: z1_13_15 = 1 -> x_13 - x_15 >= 1
a561: z1_13_16 = 1 -> x_13 - x_16 >= 1
a562: z1_13_17 = 1 -> x_13 - x_17 >= 1
a563: z1_13_18 = 1 -> x_13 - x_18 >= 1
a564: z1_13_19 = 1 -> x_13 - x_19 >= 1
a565: z1_13_20 = 1 -> x_13 - x_20 >= 1
a566: z1_13_21 = 1 -> x_13 - x_21 >= 1
a567: z1_13_22 = 1 -> x_13 - x_22 >= 1
a568: z1_13_23 = 1 -> x_13 - x_23 >= 1
a569: z1_13_24 = 1 -> x_13 - x_24 >= 1
a570: z1_13_25 = 1 -> x_13 - x_25 >= 1
a571: z1_13_26 = 1 -> x_13 - x_26 >= 1
a572: z1_13_27 = 1 -> x_13 - x_27 >= 1
a573: z1_13_28 = 1 -> x_13 - x_28 >= 1
a574: z1_13_29 = 1 -> x_13 - x_29 >= 1
a575: z1_13_30 = 1 -> x_13 - x_30 >= 1
a576: z1_13_31 = 1 -> x_13 - x_31 >= 1
a577: z1_13_32 = 1 -> x_13 - x_32 >= 1
a578: z1_13_33 = 1 -> x_13 - x_33 >= 1
a579: z1_13_34 = 1 -> x_13 - x_34 >= 1
a580: z1_13_35 = 1 -> x_13 - x_35 >= 1
a581: z1_13_36 = 1 -> x_13 - x_36 >= 1
a582: z1_13_37 = 1 -> x_13 - x_37 >= 1
a583: z1_13_38 = 1 -> x_13 - x_38 >= 1
a584: z1_13_39 = 1 -> x_13 - x_39 >= 1
a585: z1_13_40 = 1 -> x_13 - x_40 >= 1
a586: z1_13_41 = 1 -> x_13 - x_41 >= 1
a587: z1_13_42 = 1 -> x_13 - x_42 >= 1
a588: z1_13_43 = 1 -> x_13 - x_43 >= 1
a589: z1_13_44 = 1 -> x_13 - x_44 >= 1
a590: z1_13_45 = 1 -> x_13 - x_45 >= 1
a591: z1_13_46 = 1 -> x_13 - x_46 >= 1
a592: z1_13_47 = 1 -> x_13 - x_47 >= 1
a593: z1_13_48 = 1 -> x_13 - x_48 >= 1
a594: z1_13_49 = 1 -> x_13 - x_49 >= 1
a595: z1_14_15 = 1 -> x_14 - x_15 >= 1
a596: z1_14_16 = 1 -> x_14 - x_16 >= 1
a597: z1_14_17 = 1 -> x_14 - x_17 >= 1
a598: z1_14_18 = 1 -> x_14 - x_18 >= 1
a599: z1_14_19 = 1 -> x_14 - x_19 >= 1
a600: z1_14_20 = 1 -> x_14 - x_20 >= 1
a601: z1_14_21 = 1 -> x_14 - x_21 >= 1
a602: z1_14_22 = 1 -> x_14 - x_22 >= 1
a603: z1_14_23 = 1 -> x_14 - x_23 >= 1
a604: z1_14_24 = 1 -> x_14 - x_24 >= 1
a605: z1_14_25 = 1 -> x_14 - x_25 >= 1
a606: z1_14_26 = 1 -> x_14 - x_26 >= 1
a607: z1_14_27 = 1 -> x_14 - x_27 >= 1
a608: z1_14_28 = 1 -> x_14 - x_28 >= 1
a609: z1_14_29 = 1 -> x_14 - x_29 >= 1
a610: z1_14_30 = 1 -> x_14 - x_30 >= 1
a611: z1_14_31 = 1 -> x_14 - x_31 >= 1
a612: z1_14_32 = 1 -> x_14 - x_32 >= 1
a613: z1_14_33 = 1 -> x_14 - x_33 >= 1
a614: z1_14_34 = 1 -> x_14 - x_34 >= 1
a615: z1_14_35 = 1 -> x_14 - x_35 >= 1
a616: z1_14_36 = 1 -> x_14 - x_36 >= 1
a617: z1_14_37 = 1 -> x_14 - x_37 >= 1
a618: z1_14_38 = 1 -> x_14 - x_38 >= 1
a619: z1_14_39 = 1 -> x_14 - x_39 >= 1
a620: z1_14_40 = 1 -> x_14 - x_40 >= 1
a621: z1_14_41 = 1 -> x_14 - x_41 >= 1
a622: z1_14_42 = 1 -> x_14 - x_42 >= 1
a623: z1_14_43 = 1 -> x_14 - x_43 >= 1
a624: z1_14_44 = 1 -> x_14 - x_44 >= 1
a625: z1_14_45 = 1 -> x_14 - x_45 >= 1
a626: z1_14_46 = 1 -> x_14 - x_46 >= 1
a627: z1_14_47 = 1 -> x_14 - x_47 >= 1
a628: z1_14_48 = 1 -> x_14 - x_48 >= 1
a629: z1_14_49 = 1 -> x_14 - x_49 >= 1
a630: z1_15_16 = 1 -> x_15 - x_16 >= 1
a631: z1_15_17 = 1 -> x_15 - x_17 >= 1
a632: z1_15_18 = 1 -> x_15 - x_18 >= 1
a633: z1_15_19 = 1 -> x_15 - x_19 >= 1
a634: z1_15_20 = 1 -> x_15 - x_20 >= 1
a635: z1_15_21 = 1 -> x_15 - x_21 >= 1
a636: z1_15_22 = 1 -> x_15 - x_22 >= 1
a637: z1_15_23 = 1 -> x_15 - x_23 >= 1
a638: z1_15_24 = 1 -> x_15 - x_24 >= 1
a639: z1_15_25 = 1 -> x_15 - x_25 >= 1
a640: z1_15_26 = 1 -> x_15 - x_26 >= 1
a641: z1_15_27 = 1 -> x_15 - x_27 >= 1
a642: z1_15_28 = 1 -> x_15 - x_28 >= 1
a643: z1_15_29 = 1 -> x_15 - x_29 >= 1
a644: z1_15_30 = 1 -> x_15 - x_30 >= 1
a645: z1_15_31 = 1 -> x_15 - x_31 >= 1
a646: z1_15_32 = 1 -> x_15 - x_32 >= 1
a647: z1_15_33 = 1 -> x_15 - x_33 >= 1
a648: z1_15_34 = 1 -> x_15 - x_34 >= 1
a649: z1_15_35 = 1 -> x_15 - x_35 >= 1
a650: z1_15_36 = 1 -> x_15 - x_36 >= 1
a651: z1_15_37 = 1 -> x_15 - x_37 >= 1
a652: z1_15_38 = 1 -> x_15 - x_38 >= 1
a653: z1_15_39 = 1 -> x_15 - x_39 >= 1
a654: z1_15_40 = 1 -> x_15 - x_40 >= 1
a655: z1_15_41 = 1 -> x_15 - x_41 >= 1
a656: z1_15_42 = 1 -> x_15 - x_42 >= 1
a657: z1_15_43 = 1 -> x_15 - x_43 >= 1
a658: z1_15_44 = 1 -> x_15 - x_44 >= 1
a659: z1_15_45 = 1 -> x_15 - x_45 >= 1
a660: z1_15_46 = 1 -> x_15 - x_46 >= 1
a661: z1_15_47 = 1 -> x_15 - x_47 >= 1
a662: z1_15_48 = 1 -> x_15 - x_48 >= 1
a663: z1_15_49 = 1 -> x_15 - x_49 >= 1
a664: z1_16_17 = 1 -> x_16 - x_17 >= 1
a665: z1_16_18 = 1 -> x_16 - x_18 >= 1
a666: z1_16_19 = 1 -> x_16 - x_19 >= 1
a667: z1_16_20 = 1 -> x_16 - x_20 >= 1
a668: z1_16_21 = 1 -> x_16 - x_21 >= 1
a669: z1_16_22 = 1 -> x_16 - x_22 >= 1
a670: z1_16_23 = 1 -> x_16 - x_23 >= 1
a671: z1_16_24 = 1 -> x_16 - x_24 >= 1
a672: z1_16_25 = 1 -> x_16 - x_25 >= 1
a673: z1_16_26 = 1 -> x_16 - x_26 >= 1
a674: z1_16_27 = 1 -> x_16 - x_27 >= 1
a675: z1_16_28 = 1 -> x_16 - x_28 >= 1
a676: z1_16_29 = 1 -> x_16 - x_29 >= 1
a677: z1_16_30 = 1 -> x_16 - x_30 >= 1
a678: z1_16_31 = 1 -> x_16 - x_31 >= 1
a679: z1_16_32 = 1 -> x_16 - x_32 >= 1
a680: z1_16_33 = 1 -> x_16 - x_33 >= 1
a681: z1_16_34 = 1 -> x_16 - x_34 >= 1
a682: z1_16_35 = 1 -> x_16 - x_35 >= 1
a683: z1_16_36 = 1 -> x_16 - x_36 >= 1
a684: z1_16_37 = 1 -> x_16 - x_37 >= 1
a685: z1_16_38 = 1 -> x_16 - x_38 >= 1
a686: z1_16_39 = 1 -> x_16 - x_39 >= 1
a687: z1_16_40 = 1 -> x_16 - x_40 >= 1
a688: z1_16_41 = 1 -> x_16 - x_41 >= 1
a689: z1_16_42 = 1 -> x_16 - x_42 >= 1
a690: z1_16_43 = 1 -> x_16 - x_43 >= 1
a691: z1_16_44 = 1 -> x_16 - x_44 >= 1
a692: z1_16_45 = 1 -> x_16 - x_45 >= 1
a693: z1_16_46 = 1 -> x_16 - x_46 >= 1
a694: z1_16_47 = 1 -> x_16 - x_47 >= 1
a695: z1_16_48 = 1 -> x_16 - x_48 >= 1
a696: z1_16_49 = 1 -> x_16 - x_49 >= 1
a697: z1_17_18 = 1 -> x_17 - x_18 >= 1
a698: z1_17_19 = 1 -> x_17 - x_19 >= 1
a699: z1_17_20 = 1 -> x_17 - x_20 >= 1
a700: z1_17_21 = 1 -> x_17 - x_21 >= 1
a701: z1_17_22 = 1 -> x_17 - x_22 >= 1
a702: z1_17_23 = 1 -> x_17 - x_23 >= 1
a703: z1_17_24 = 1 -> x_17 - x_24 >= 1
a704: z1_17_25 = 1 -> x_17 - x_25 >= 1
a705: z1_17_26 = 1 -> x_17 - x_26 >= 1
a706: z1_17_27 = 1 -> x_17 - x_27 >= 1
a707: z1_17_28 = 1 -> x_17 - x_28 >= 1
a708: z1_17_29 = 1 -> x_17 - x_29 >= 1
a709: z1_17_30 = 1 -> x_17 - x_30 >= 1
a710: z1_17_31 = 1 -> x_17 - x_31 >= 1
a711: z1_17_32 = 1 -> x_17 - x_32 >= 1
a712: z1_17_33 = 1 -> x_17 - x_33 >= 1
a713: z1_17_34 = 1 -> x_17 - x_34 >= 1
a714: z1_17_35 = 1 -> x_17 - x_35 >= 1
a715: z1_17_36 = 1 -> x_17 - x_36 >= 1
a716: z1_17_37 = 1 -> x_17 - x_37 >= 1
a717: z1_17_38 = 1 -> x_17 - x_38 >= 1
a718: z1_17_39 = 1 -> x_17 - x_39 >= 1
a719: z1_17_40 = 1 -> x_17 - x_40 >= 1
a720: z1_17_41 = 1 -> x_17 - x_41 >= 1
a721: z1_17_42 = 1 -> x_17 - x_42 >= 1
a722: z1_17_43 = 1 -> x_17 - x_43 >= 1
a723: z1_17_44 = 1 -> x_17 - x_44 >= 1
a724: z1_17_45 = 1 -> x_17 - x_45 >= 1
a725: z1_17_46 = 1 -> x_17 - x_46 >= 1
a726: z1_17_47 = 1 -> x_17 - x_47 >= 1
a727: z1_17_48 = 1 -> x_17 - x_48 >= 1
a728: z1_17_49 = 1 -> x_17 - x_49 >= 1
a729: z1_18_19 = 1 -> x_18 - x_19 >= 1
a730: z1_18_20 = 1 -> x_18 - x_20 >= 1
a731: z1_18_21 = 1 -> x_18 - x_21 >= 1
a732: z1_18_22 = 1 -> x_18 - x_22 >= 1
a733: z1_18_23 = 1 -> x_18 - x_23 >= 1
a734: z1_18_24 = 1 -> x_18 - x_24 >= 1
a735: z1_18_25 = 1 -> x_18 - x_25 >= 1
a736: z1_18_26 = 1 -> x_18 - x_26 >= 1
a737: z1_18_27 = 1 -> x_18 - x_27 >= 1
a738: z1_18_28 = 1 -> x_18 - x_28 >= 1
a739: z1_18_29 = 1 -> x_18 - x_29 >= 1
a740: z1_18_30 = 1 -> x_18 - x_30 >= 1
a741: z1_18_31 = 1 -> x_18 - x_31 >= 1
a742: z1_18_32 = 1 -> x_18 - x_32 >= 1
a743: z1_18_33 = 1 -> x_18 - x_33 >= 1
a744: z1_18_34 = 1 -> x_18 - x_34 >= 1
a745: z1_18_35 = 1 -> x_18 - x_35 >= 1
a746: z1_18_36 = 1 -> x_18 - x_36 >= 1
a747: z1_18_37 = 1 -> x_18 - x_37 >= 1
a748: z1_18_38 = 1 -> x_18 - x_38 >= 1
a749: z1_18_39 = 1 -> x_18 - x_39 >= 1
a750: z1_18_40 = 1 -> x_18 - x_40 >= 1
a751: z1_18_41 = 1 -> x_18 - x_41 >= 1
a752: z1_18_42 = 1 -> x_18 - x_42 >= 1
a753: z1_18_43 = 1 -> x_18 - x_43 >= 1
a754: z1_18_44 = 1 -> x_18 - x_44 >= 1
a755: z1_18_45 = 1 -> x_18 - x_45 >= 1
a756: z1_18_46 = 1 -> x_18 - x_46 >= 1
a757: z1_18_47 = 1 -> x_18 - x_47 >= 1
a758: z1_18_48 = 1 -> x_18 - x_48 >= 1
a759: z1_18_49 = 1 -> x_18 - x_49 >= 1
a760: z1_19_20 = 1 -> x_19 - x_20 >= 1
a761: z1_19_21 = 1 -> x_19 - x_21 >= 1
a762: z1_19_22 = 1 -> x_19 - x_22 >= 1
a763: z1_19_23 = 1 -> x_19 - x_23 >= 1
a764: z1_19_24 = 1 -> x_19 - x_24 >= 1
a765: z1_19_25 = 1 -> x_19 - x_25 >= 1
a766: z1_19_26 = 1 -> x_19 - x_26 >= 1
a767: z1_19_27 = 1 -> x_19 - x_27 >= 1
a768: z1_19_28 = 1 -> x_19 - x_28 >= 1
a769: z1_19_29 = 1 -> x_19 - x_29 >= 1
a770: z1_19_30 = 1 -> x_19 - x_30 >= 1
a771: z1_19_31 = 1 -> x_19 - x_31 >= 1
a772: z1_19_32 = 1 -> x_19 - x_32 >= 1
a773: z1_19_33 = 1 -> x_19 - x_33 >= 1
a774: z1_19_34 = 1 -> x_19 - x_34 >= 1
a775: z1_19_35 = 1 -> x_19 - x_35 >= 1
a776: z1_19_36 = 1 -> x_19 - x_36 >= 1
a777: z1_19_37 = 1 -> x_19 - x_37 >= 1
a778: z1_19_38 = 1 -> x_19 - x_38 >= 1
a779: z1_19_39 = 1 -> x_19 - x_39 >= 1
a780: z1_19_40 = 1 -> x_19 - x_40 >= 1
a781: z1_19_41 = 1 -> x_19 - x_41 >= 1
a782: z1_19_42 = 1 -> x_19 - x_42 >= 1
a783: z1_19_43 = 1 -> x_19 - x_43 >= 1
a784: z1_19_44 = 1 -> x_19 - x_44 >= 1
a785: z1_19_45 = 1 -> x_19 - x_45 >= 1
a786: z1_19_46 = 1 -> x_19 - x_46 >= 1
a787: z1_19_47 = 1 -> x_19 - x_47 >= 1
a788: z1_19_48 = 1 -> x_19 - x_48 >= 1
a789: z1_19_49 = 1 -> x_19 - x_49 >= 1
a790: z1_20_21 = 1 -> x_20 - x_21 >= 1
a791: z1_20_22 = 1 -> x_20 - x_22 >= 1
a792: z1_20_23 = 1 -> x_20 - x_23 >= 1
a793: z1_20_24 = 1 -> x_20 - x_24 >= 1
a794: z1_20_25 = 1 -> x_20 - x_25 >= 1
a795: z1_20_26 = 1 -> x_20 - x_26 >= 1
a796: z1_20_27 = 1 -> x_20 - x_27 >= 1
a797: z1_20_28 = 1 -> x_20 - x_28 >= 1
a798: z1_20_29 = 1 -> x_20 - x_29 >= 1
a799: z1_20_30 = 1 -> x_20 - x_30 >= 1
a800: z1_20_31 = 1 -> x_20 - x_31 >= 1
a801: z1_20_32 = 1 -> x_20 - x_32 >= 1
a802: z1_20_33 = 1 -> x_20 - x_33 >= 1
a803: z1_20_34 = 1 -> x_20 - x_34 >= 1
a804: z1_20_35 = 1 -> x_20 - x_35 >= 1
a805: z1_20_36 = 1 -> x_20 - x_36 >= 1
a806: z1_20_37 = 1 -> x_20 - x_37 >= 1
a807: z1_20_38 = 1 -> x_20 - x_38 >= 1
a808: z1_20_39 = 1 -> x_20 - x_39 >= 1
a809: z1_20_40 = 1 -> x_20 - x_40 >= 1
a810: z1_20_41 = 1 -> x_20 - x_41 >= 1
a811: z1_20_42 = 1 -> x_20 - x_42 >= 1
a812: z1_20_43 = 1 -> x_20 - x_43 >= 1
a813: z1_20_44 = 1 -> x_20 - x_44 >= 1
a814: z1_20_45 = 1 -> x_20 - x_45 >= 1
a815: z1_20_46 = 1 -> x_20 - x_46 >= 1
a816: z1_20_47 = 1 -> x_20 - x_47 >= 1
a817: z1_20_48 = 1 -> x_20 - x_48 >= 1
a818: z1_20_49 = 1 -> x_20 - x_49 >= 1
a819: z1_21_22 = 1 -> x_21 - x_22 >= 1
a820: z1_21_23 = 1 -> x_21 - x_23 >= 1
a821: z1_21_24 = 1 -> x_21 - x_24 >= 1
a822: z1_21_25 = 1 -> x_21 - x_25 >= 1
a823: z1_21_26 = 1 -> x_21 - x_26 >= 1
a824: z1_21_27 = 1 -> x_21 - x_27 >= 1
a825: z1_21_28 = 1 -> x_21 - x_28 >= 1
a826: z1_21_29 = 1 -> x_21 - x_29 >= 1
a827: z1_21_30 = 1 -> x_21 - x_30 >= 1
a828: z1_21_31 = 1 -> x_21 - x_31 >= 1
a829: z1_21_32 = 1 -> x_21 - x_32 >= 1
a830: z1_21_33 = 1 -> x_21 - x_33 >= 1
a831: z1_21_34 = 1 -> x_21 - x_34 >= 1
a832: z1_21_35 = 1 -> x_21 - x_35 >= 1
a833: z1_21_36 = 1 -> x_21 - x_36 >= 1
a834: z1_21_37 = 1 -> x_21 - x_37 >= 1
a835: z1_21_38 = 1 -> x_21 - x_38 >= 1
a836: z1_21_39 = 1 -> x_21 - x_39 >= 1
a837: z1_21_40 = 1 -> x_21 - x_40 >= 1
a838: z1_21_41 = 1 -> x_21 - x_41 >= 1
a839: z1_21_42 = 1 -> x_21 - x_42 >= 1
a840: z1_21_43 = 1 -> x_21 - x_43 >= 1
a841: z1_21_44 = 1 -> x_21 - x_44 >= 1
a842: z1_21_45 = 1 -> x_21 - x_45 >= 1
a843: z1_21_46 = 1 -> x_21 - x_46 >= 1
a844: z1_21_47 = 1 -> x_21 - x_47 >= 1
a845: z1_21_48 = 1 -> x_21 - x_48 >= 1
a846: z1_21_49 = 1 -> x_21 - x_49 >= 1
a847: z1_22_23 = 1 -> x_22 - x_23 >= 1
a848: z1_22_24 = 1 -> x_22 - x_24 >= 1
a849: z1_22_25 = 1 -> x_22 - x_25 >= 1
a850: z1_22_26 = 1 -> x_22 - x_26 >= 1
a851: z1_22_27 = 1 -> x_22 - x_27 >= 1
a852: z1_22_28 = 1 -> x_22 - x_28 >= 1
a853: z1_22_29 = 1 -> x_22 - x_29 >= 1
a854: z1_22_30 = 1 -> x_22 - x_30 >= 1
a855: z1_22_31 = 1 -> x_22 - x_31 >= 1
a856: z1_22_32 = 1 -> x_22 - x_32 >= 1
a857: z1_22_33 = 1 -> x_22 - x_33 >= 1
a858: z1_22_34 = 1 -> x_22 - x_34 >= 1
a859: z1_22_35 = 1 -> x_22 - x_35 >= 1
a860: z1_22_36 = 1 -> x_22 - x_36 >= 1
a861: z1_22_37 = 1 -> x_22 - x_37 >= 1
a862: z1_22_38 = 1 -> x_22 - x_38 >= 1
a863: z1_22_39 = 1 -> x_22 - x_39 >= 1
a864: z1_22_40 = 1 -> x_22 - x_40 >= 1
a865: z1_22_41 = 1 -> x_22 - x_41 >= 1
a866: z1_22_42 = 1 -> x_22 - x_42 >= 1
a867: z1_22_43 = 1 -> x_22 - x_43 >= 1
a868: z1_22_44 = 1 -> x_22 - x_44 >= 1
a869: z1_22_45 = 1 -> x_22 - x_45 >= 1
a870: z1_22_46 = 1 -> x_22 - x_46 >= 1
a871: z1_22_47 = 1 -> x_22 - x_47 >= 1
a872: z1_22_48 = 1 -> x_22 - x_48 >= 1
a873: z1_22_49 = 1 -> x_22 - x_49 >= 1
a874: z1_23_24 = 1 -> x_23 - x_24 >= 1
a875: z1_23_25 = 1 -> x_23 - x_25 >= 1
a876: z1_23_26 = 1 -> x_23 - x_26 >= 1
a877: z1_23_27 = 1 -> x_23 - x_27 >= 1
a878: z1_23_28 = 1 -> x_23 - x_28 >= 1
a879: z1_23_29 = 1 -> x_23 - x_29 >= 1
a880: z1_23_30 = 1 -> x_23 - x_30 >= 1
a881: z1_23_31 = 1 -> x_23 - x_31 >= 1
a882: z1_23_32 = 1 -> x_23 - x_32 >= 1
a883: z1_23_33 = 1 -> x_23 - x_33 >= 1
a884: z1_23_34 = 1 -> x_23 - x_34 >= 1
a885: z1_23_35 = 1 -> x_23 - x_35 >= 1
a886: z1_23_36 = 1 -> x_23 - x_36 >= 1
a887: z1_23_37 = 1 -> x_23 - x_37 >= 1
a888: z1_23_38 = 1 -> x_23 - x_38 >= 1
a889: z1_23_39 = 1 -> x_23 - x_39 >= 1
a890: z1_23_40 = 1 -> x_23 - x_40 >= 1
a891: z1_23_41 = 1 -> x_23 - x_41 >= 1
a892: z1_23_42 = 1 -> x_23 - x_42 >= 1
a893: z1_23_43 = 1 -> x_23 - x_43 >= 1
a894: z1_23_44 = 1 -> x_23 - x_44 >= 1
a895: z1_23_45 = 1 -> x_23 - x_45 >= 1
a896: z1_23_46 = 1 -> x_23 - x_46 >= 1
a897: z1_23_47 = 1 -> x_23 - x_47 >= 1
a898: z1_23_48 = 1 -> x_23 - x_48 >= 1
a899: z1_23_49 = 1 -> x_23 - x_49 >= 1
a900: z1_24_25 = 1 -> x_24 - x_25 >= 1
a901: z1_24_26 = 1 -> x_24 - x_26 >= 1
a902: z1_24_27 = 1 -> x_24 - x_27 >= 1
a903: z1_24_28 = 1 -> x_24 - x_28 >= 1
a904: z1_24_29 = 1 -> x_24 - x_29 >= 1
a905: z1_24_30 = 1 -> x_24 - x_30 >= 1
a906: z1_24_31 = 1 -> x_24 - x_31 >= 1
a907: z1_24_32 = 1 -> x_24 - x_32 >= 1
a908: z1_24_33 = 1 -> x_24 - x_33 >= 1
a909: z1_24_34 = 1 -> x_24 - x_34 >= 1
a910: z1_24_35 = 1 -> x_24 - x_35 >= 1
a911: z1_24_36 = 1 -> x_24 - x_36 >= 1
a912: z1_24_37 = 1 -> x_24 - x_37 >= 1
a913: z1_24_38 = 1 -> x_24 - x_38 >= 1
a914: z1_24_39 = 1 -> x_24 - x_39 >= 1
a915: z1_24_40 = 1 -> x_24 - x_40 >= 1
a916: z1_24_41 = 1 -> x_24 - x_41 >= 1
a917: z1_24_42 = 1 -> x_24 - x_42 >= 1
a918: z1_24_43 = 1 -> x_24 - x_43 >= 1
a919: z1_24_44 = 1 -> x_24 - x_44 >= 1
a920: z1_24_45 = 1 -> x_24 - x_45 >= 1
a921: z1_24_46 = 1 -> x_24 - x_46 >= 1
a922: z1_24_47 = 1 -> x_24 - x_47 >= 1
a923: z1_24_48 = 1 -> x_24 - x_48 >= 1
a924: z1_24_49 = 1 -> x_24 - x_49 >= 1
a925: z1_25_26 = 1 -> x_25 - x_26 >= 1
a926: z1_25_27 = 1 -> x_25 - x_27 >= 1
a927: z1_25_28 = 1 -> x_25 - x_28 >= 1
a928: z1_25_29 = 1 -> x_25 - x_29 >= 1
a929: z1_25_30 = 1 -> x_25 - x_30 >= 1
a930: z1_25_31 = 1 -> x_25 - x_31 >= 1
a931: z1_25_32 = 1 -> x_25 - x_32 >= 1
a932: z1_25_33 = 1 -> x_25 - x_33 >= 1
a933: z1_25_34 = 1 -> x_25 - x_34 >= 1
a934: z1_25_35 = 1 -> x_25 - x_35 >= 1
a935: z1_25_36 = 1 -> x_25 - x_36 >= 1
a936: z1_25_37 = 1 -> x_25 - x_37 >= 1
a937: z1_25_38 = 1 -> x_25 - x_38 >= 1
a938: z1_25_39 = 1 -> x_25 - x_39 >= 1
a939: z1_25_40 = 1 -> x_25 - x_40 >= 1
a940: z1_25_41 = 1 -> x_25 - x_41 >= 1
a941: z1_25_42 = 1 -> x_25 - x_42 >= 1
a942: z1_25_43 = 1 -> x_25 - x_43 >= 1
a943: z1_25_44 = 1 -> x_25 - x_44 >= 1
a944: z1_25_45 = 1 -> x_25 - x_45 >= 1
a945: z1_25_46 = 1 -> x_25 - x_46 >= 1
a946: z1_25_47 = 1 -> x_25 - x_47 >= 1
a947: z1_25_48 = 1 -> x_25 - x_48 >= 1
a948: z1_25_49 = 1 -> x_25 - x_49 >= 1
a949: z1_26_27 = 1 -> x_26 - x_27 >= 1
a950: z1_26_28 = 1 -> x_26 - x_28 >= 1
a951: z1_26_29 = 1 -> x_26 - x_29 >= 1
a952: z1_26_30 = 1 -> x_26 - x_30 >= 1
a953: z1_26_31 = 1 -> x_26 - x_31 >= 1
a954: z1_26_32 = 1 -> x_26 - x_32 >= 1
a955: z1_26_33 = 1 -> x_26 - x_33 >= 1
a956: z1_26_34 = 1 -> x_26 - x_34 >= 1
a957: z1_26_35 = 1 -> x_26 - x_35 >= 1
a958: z1_26_36 = 1 -> x_26 - x_36 >= 1
a959: z1_26_37 = 1 -> x_26 - x_37 >= 1
a960: z1_26_38 = 1 -> x_26 - x_38 >= 1
a961: z1_26_39 = 1 -> x_26 - x_39 >= 1
a962: z1_26_40 = 1 -> x_26 - x_40 >= 1
a963: z1_26_41 = 1 -> x_26 - x_41 >= 1
a964: z1_26_42 = 1 -> x_26 - x_42 >= 1
a965: z1_26_43 = 1 -> x_26 - x_43 >= 1
a966: z1_26_44 = 1 -> x_26 - x_44 >= 1
a967: z1_26_45 = 1 -> x_26 - x_45 >= 1
a968: z1_26_46 = 1 -> x_26 - x_46 >= 1
a969: z1_26_47 = 1 -> x_26 - x_47 >= 1
a970: z1_26_48 = 1 -> x_26 - x_48 >= 1
a971: z1_26_49 = 1 -> x_26 - x_49 >= 1
a972: z1_27_28 = 1 -> x_27 - x_28 >= 1
a973: z1_27_29 = 1 -> x_27 - x_29 >= 1
a974: z1_27_30 = 1 -> x_27 - x_30 >= 1
a975: z1_27_31 = 1 -> x_27 - x_31 >= 1
a976: z1_27_32 = 1 -> x_27 - x_32 >= 1
a977: z1_27_33 = 1 -> x_27 - x_33 >= 1
a978: z1_27_34 = 1 -> x_27 - x_34 >= 1
a979: z1_27_35 = 1 -> x_27 - x_35 >= 1
a980: z1_27_36 = 1 -> x_27 - x_36 >= 1
a981: z1_27_37 = 1 -> x_27 - x_37 >= 1
a982: z1_27_38 = 1 -> x_27 - x_38 >= 1
a983: z1_27_39 = 1 -> x_27 - x_39 >= 1
a984: z1_27_40 = 1 -> x_27 - x_40 >= 1
a985: z1_27_41 = 1 -> x_27 - x_41 >= 1
a986: z1_27_42 = 1 -> x_27 - x_42 >= 1
a987: z1_27_43 = 1 -> x_27 - x_43 >= 1
a988: z1_27_44 = 1 -> x_27 - x_44 >= 1
a989: z1_27_45 = 1 -> x_27 - x_45 >= 1
a990: z1_27_46 = 1 -> x_27 - x_46 >= 1
a991: z1_27_47 = 1 -> x_27 - x_47 >= 1
a992: z1_27_48 = 1 -> x_27 - x_48 >= 1
a993: z1_27_49 = 1 -> x_27 - x_49 >= 1
a994: z1_28_29 = 1 -> x_28 - x_29 >= 1
a995: z1_28_30 = 1 -> x_28 - x_30 >= 1
a996: z1_28_31 = 1 -> x_28 - x_31 >= 1
a997: z1_28_32 = 1 -> x_28 - x_32 >= 1
a998: z1_28_33 = 1 -> x_28 - x_33 >= 1
a999: z1_28_34 = 1 -> x_28 - x_34 >= 1
a1000: z1_28_35 = 1 -> x_28 - x_35 >= 1
a1001: z1_28_36 = 1 -> x_28 - x_36 >= 1
a1002: z1_28_37 = 1 -> x_28 - x_37 >= 1
a1003: z1_28_38 = 1 -> x_28 - x_38 >= 1
a1004: z1_28_39 = 1 -> x_28 - x_39 >= 1
a1005: z1_28_40 = 1 -> x_28 - x_40 >= 1
a1006: z1_28_41 = 1 -> x_28 - x_41 >= 1
a1007: z1_28_42 = 1 -> x_28 - x_42 >= 1
a1008: z1_28_43 = 1 -> x_28 - x_43 >= 1
a1009: z1_28_44 = 1 -> x_28 - x_44 >= 1
a1010: z1_28_45 = 1 -> x_28 - x_45 >= 1
a1011: z1_28_46 = 1 -> x_28 - x_46 >= 1
a1012: z1_28_47 = 1 -> x_28 - x_47 >= 1
a1013: z1_28_48 = 1 -> x_28 - x_48 >= 1
a1014: z1_28_49 = 1 -> x_28 - x_49 >= 1
a1015: z1_29_30 = 1 -> x_29 - x_30 >= 1
a1016: z1_29_31 = 1 -> x_29 - x_31 >= 1
a1017: z1_29_32 = 1 -> x_29 - x_32 >= 1
a1018: z1_29_33 = 1 -> x_29 - x_33 >= 1
a1019: z1_29_34 = 1 -> x_29 - x_34 >= 1
a1020: z1_29_35 = 1 -> x_29 - x_35 >= 1
a1021: z1_29_36 = 1 -> x_29 - x_36 >= 1
a1022: z1_29_37 = 1 -> x_29 - x_37 >= 1
a1023: z1_29_38 = 1 -> x_29 - x_38 >= 1
a1024: z1_29_39 = 1 -> x_29 - x_39 >= 1
a1025: z1_29_40 = 1 -> x_29 - x_40 >= 1
a1026: z1_29_41 = 1 -> x_29 - x_41 >= 1
a1027: z1_29_42 = 1 -> x_29 - x_42 >= 1
a1028: z1_29_43 = 1 -> x_29 - x_43 >= 1
a1029: z1_29_44 = 1 -> x_29 - x_44 >= 1
a1030: z1_29_45 = 1 -> x_29 - x_45 >= 1
a1031: z1_29_46 = 1 -> x_29 - x_46 >= 1
a1032: z1_29_47 = 1 -> x_29 - x_47 >= 1
a1033: z1_29_48 = 1 -> x_29 - x_48 >= 1
a1034: z1_29_49 = 1 -> x_29 - x_49 >= 1
a1035: z1_30_31 = 1 -> x_30 - x_31 >= 1
a1036: z1_30_32 = 1 -> x_30 - x_32 >= 1
a1037: z1_30_33 = 1 -> x_30 - x_33 >= 1
a1038: z1_30_34 = 1 -> x_30 - x_34 >= 1
a1039: z1_30_35 = 1 -> x_30 - x_35 >= 1
a1040: z1_30_36 = 1 -> x_30 - x_36 >= 1
a1041: z1_30_37 = 1 -> x_30 - x_37 >= 1
a1042: z1_30_38 = 1 -> x_30 - x_38 >= 1
a1043: z1_30_39 = 1 -> x_30 - x_39 >= 1
a1044: z1_30_40 = 1 -> x_30 - x_40 >= 1
a1045: z1_30_41 = 1 -> x_30 - x_41 >= 1
a1046: z1_30_42 = 1 -> x_30 - x_42 >= 1
a1047: z1_30_43 = 1 -> x_30 - x_43 >= 1
a1048: z1_30_44 = 1 -> x_30 - x_44 >= 1
a1049: z1_30_45 = 1 -> x_30 - x_45 >= 1
a1050: z1_30_46 = 1 -> x_30 - x_46 >= 1
a1051: z1_30_47 = 1 -> x_30 - x_47 >= 1
a1052: z1_30_48 = 1 -> x_30 - x_48 >= 1
a1053: z1_30_49 = 1 -> x_30 - x_49 >= 1
a1054: z1_31_32 = 1 -> x_31 - x_32 >= 1
a1055: z1_31_33 = 1 -> x_31 - x_33 >= 1
a1056: z1_31_34 = 1 -> x_31 - x_34 >= 1
a1057: z1_31_35 = 1 -> x_31 - x_35 >= 1
a1058: z1_31_36 = 1 -> x_31 - x_36 >= 1
a1059: z1_31_37 = 1 -> x_31 - x_37 >= 1
a1060: z1_31_38 = 1 -> x_31 - x_38 >= 1
a1061: z1_31_39 = 1 -> x_31 - x_39 >= 1
a1062: z1_31_40 = 1 -> x_31 - x_40 >= 1
a1063: z1_31_41 = 1 -> x_31 - x_41 >= 1
a1064: z1_31_42 = 1 -> x_31 - x_42 >= 1
a1065: z1_31_43 = 1 -> x_31 - x_43 >= 1
a1066: z1_31_44 = 1 -> x_31 - x_44 >= 1
a1067: z1_31_45 = 1 -> x_31 - x_45 >= 1
a1068: z1_31_46 = 1 -> x_31 - x_46 >= 1
a1069: z1_31_47 = 1 -> x_31 - x_47 >= 1
a1070: z1_31_48 = 1 -> x_31 - x_48 >= 1
a1071: z1_31_49 = 1 -> x_31 - x_49 >= 1
a1072: z1_32_33 = 1 -> x_32 - x_33 >= 1
a1073: z1_32_34 = 1 -> x_32 - x_34 >= 1
a1074: z1_32_35 = 1 -> x_32 - x_35 >= 1
a1075: z1_32_36 = 1 -> x_32 - x_36 >= 1
a1076: z1_32_37 = 1 -> x_32 - x_37 >= 1
a1077: z1_32_38 = 1 -> x_32 - x_38 >= 1
a1078: z1_32_39 = 1 -> x_32 - x_39 >= 1
a1079: z1_32_40 = 1 -> x_32 - x_40 >= 1
a1080: z1_32_41 = 1 -> x_32 - x_41 >= 1
a1081: z1_32_42 = 1 -> x_32 - x_42 >= 1
a1082: z1_32_43 = 1 -> x_32 - x_43 >= 1
a1083: z1_32_44 = 1 -> x_32 - x_44 >= 1
a1084: z1_32_45 = 1 -> x_32 - x_45 >= 1
a1085: z1_32_46 = 1 -> x_32 - x_46 >= 1
a1086: z1_32_47 = 1 -> x_32 - x_47 >= 1
a1087: z1_32_48 = 1 -> x_32 - x_48 >= 1
a1088: z1_32_49 = 1 -> x_32 - x_49 >= 1
a1089: z1_33_34 = 1 -> x_33 - x_34 >= 1
a1090: z1_33_35 = 1 -> x_33 - x_35 >= 1
a1091: z1_33_36 = 1 -> x_33 - x_36 >= 1
a1092: z1_33_37 = 1 -> x_33 - x_37 >= 1
a1093: z1_33_38 = 1 -> x_33 - x_38 >= 1
a1094: z1_33_39 = 1 -> x_33 - x_39 >= 1
a1095: z1_33_40 = 1 -> x_33 - x_40 >= 1
a1096: z1_33_41 = 1 -> x_33 - x_41 >= 1
a1097: z1_33_42 = 1 -> x_33 - x_42 >= 1
a1098: z1_33_43 = 1 -> x_33 - x_43 >= 1
a1099: z1_33_44 = 1 -> x_33 - x_44 >= 1
a1100: z1_33_45 = 1 -> x_33 - x_45 >= 1
a1101: z1_33_46 = 1 -> x_33 - x_46 >= 1
a1102: z1_33_47 = 1 -> x_33 - x_47 >= 1
a1103: z1_33_48 = 1 -> x_33 - x_48 >= 1
a1104: z1_33_49 = 1 -> x_33 - x_49 >= 1
a1105: z1_34_35 = 1 -> x_34 - x_35 >= 1
a1106: z1_34_36 = 1 -> x_34 - x_36 >= 1
a1107: z1_34_37 = 1 -> x_34 - x_37 >= 1
a1108: z1_34_38 = 1 -> x_34 - x_38 >= 1
a1109: z1_34_39 = 1 -> x_34 - x_39 >= 1
a1110: z1_34_40 = 1 -> x_34 - x_40 >= 1
a1111: z1_34_41 = 1 -> x_34 - x_41 >= 1
a1112: z1_34_42 = 1 -> x_34 - x_42 >= 1
a1113: z1_34_43 = 1 -> x_34 - x_43 >= 1
a1114: z1_34_44 = 1 -> x_34 - x_44 >= 1
a1115: z1_34_45 = 1 -> x_34 - x_45 >= 1
a1116: z1_34_46 = 1 -> x_34 - x_46 >= 1
a1117: z1_34_47 = 1 -> x_34 - x_47 >= 1
a1118: z1_34_48 = 1 -> x_34 - x_48 >= 1
a1119: z1_34_49 = 1 -> x_34 - x_49 >= 1
a1120: z1_35_36 = 1 -> x_35 - x_36 >= 1
a1121: z1_35_37 = 1 -> x_35 - x_37 >= 1
a1122: z1_35_38 = 1 -> x_35 - x_38 >= 1
a1123: z1_35_39 = 1 -> x_35 - x_39 >= 1
a1124: z1_35_40 = 1 -> x_35 - x_40 >= 1
a1125: z1_35_41 = 1 -> x_35 - x_41 >= 1
a1126: z1_35_42 = 1 -> x_35 - x_42 >= 1
a1127: z1_35_43 = 1 -> x_35 - x_43 >= 1
a1128: z1_35_44 = 1 -> x_35 - x_44 >= 1
a1129: z1_35_45 = 1 -> x_35 - x_45 >= 1
a1130: z1_35_46 = 1 -> x_35 - x_46 >= 1
a1131: z1_35_47 = 1 -> x_35 - x_47 >= 1
a1132: z1_35_48 = 1 -> x_35 - x_48 >= 1
a1133: z1_35_49 = 1 -> x_35 - x_49 >= 1
a1134: z1_36_37 = 1 -> x_36 - x_37 >= 1
a1135: z1_36_38 = 1 -> x_36 - x_38 >= 1
a1136: z1_36_39 = 1 -> x_36 - x_39 >= 1
a1137: z1_36_40 = 1 -> x_36 - x_40 >= 1
a1138: z1_36_41 = 1 -> x_36 - x_41 >= 1
a1139: z1_36_42 = 1 -> x_36 - x_42 >= 1
a1140: z1_36_43 = 1 -> x_36 - x_43 >= 1
a1141: z1_36_44 = 1 -> x_36 - x_44 >= 1
a1142: z1_36_45 = 1 -> x_36 - x_45 >= 1
a1143: z1_36_46 = 1 -> x_36 - x_46 >= 1
a1144: z1_36_47 = 1 -> x_36 - x_47 >= 1
a1145: z1_36_48 = 1 -> x_36 - x_48 >= 1
a1146: z1_36_49 = 1 -> x_36 - x_49 >= 1
a1147: z1_37_38 = 1 -> x_37 - x_38 >= 1
a1148: z1_37_39 = 1 -> x_37 - x_39 >= 1
a1149: z1_37_40 = 1 -> x_37 - x_40 >= 1
a1150: z1_37_41 = 1 -> x_37 - x_41 >= 1
a1151: z1_37_42 = 1 -> x_37 - x_42 >= 1
a1152: z1_37_43 = 1 -> x_37 - x_43 >= 1
a1153: z1_37_44 = 1 -> x_37 - x_44 >= 1
a1154: z1_37_45 = 1 -> x_37 - x_45 >= 1
a1155: z1_37_46 = 1 -> x_37 - x_46 >= 1
a1156: z1_37_47 = 1 -> x_37 - x_47 >= 1
a1157: z1_37_48 = 1 -> x_37 - x_48 >= 1
a1158: z1_37_49 = 1 -> x_37 - x_49 >= 1
a1159: z1_38_39 = 1 -> x_38 - x_39 >= 1
a1160: z1_38_40 = 1 -> x_38 - x_40 >= 1
a1161: z1_38_41 = 1 -> x_38 - x_41 >= 1
a1162: z1_38_42 = 1 -> x_38 - x_42 >= 1
a1163: z1_38_43 = 1 -> x_38 - x_43 >= 1
a1164: z1_38_44 = 1 -> x_38 - x_44 >= 1
a1165: z1_38_45 = 1 -> x_38 - x_45 >= 1
a1166: z1_38_46 = 1 -> x_38 - x_46 >= 1
a1167: z1_38_47 = 1 -> x_38 - x_47 >= 1
a1168: z1_38_48 = 1 -> x_38 - x_48 >= 1
a1169: z1_38_49 = 1 -> x_38 - x_49 >= 1
a1170: z1_39_40 = 1 -> x_39 - x_40 >= 1
a1171: z1_39_41 = 1 -> x_39 - x_41 >= 1
a1172: z1_39_42 = 1 -> x_39 - x_42 >= 1
a1173: z1_39_43 = 1 -> x_39 - x_43 >= 1
a1174: z1_39_44 = 1 -> x_39 - x_44 >= 1
a1175: z1_39_45 = 1 -> x_39 - x_45 >= 1
a1176: z1_39_46 = 1 -> x_39 - x_46 >= 1
a1177: z1_39_47 = 1 -> x_39 - x_47 >= 1
a1178: z1_39_48 = 1 -> x_39 - x_48 >= 1
a1179: z1_39_49 = 1 -> x_39 - x_49 >= 1
a1180: z1_40_41 = 1 -> x_40 - x_41 >= 1
a1181: z1_40_42 = 1 -> x_40 - x_42 >= 1
a1182: z1_40_43 = 1 -> x_40 - x_43 >= 1
a1183: z1_40_44 = 1 -> x_40 - x_44 >= 1
a1184: z1_40_45 = 1 -> x_40 - x_45 >= 1
a1185: z1_40_46 = 1 -> x_40 - x_46 >= 1
a1186: z1_40_47 = 1 -> x_40 - x_47 >= 1
a1187: z1_40_48 = 1 -> x_40 - x_48 >= 1
a1188: z1_40_49 = 1 -> x_40 - x_49 >= 1
a1189: z1_41_42 = 1 -> x_41 - x_42 >= 1
a1190: z1_41_43 = 1 -> x_41 - x_43 >= 1
a1191: z1_41_44 = 1 -> x_41 - x_44 >= 1
a1192: z1_41_45 = 1 -> x_41 - x_45 >= 1
a1193: z1_41_46 = 1 -> x_41 - x_46 >= 1
a1194: z1_41_47 = 1 -> x_41 - x_47 >= 1
a1195: z1_41_48 = 1 -> x_41 - x_48 >= 1
a1196: z1_41_49 = 1 -> x_41 - x_49 >= 1
a1197: z1_42_43 = 1 -> x_42 - x_43 >= 1
a1198: z1_42_44 = 1 -> x_42 - x_44 >= 1
a1199: z1_42_45 = 1 -> x_42 - x_45 >= 1
a1200: z1_42_46 = 1 -> x_42 - x_46 >= 1
a1201: z1_42_47 = 1 -> x_42 - x_47 >= 1
a1202: z1_42_48 = 1 -> x_42 - x_48 >= 1
a1203: z1_42_49 = 1 -> x_42 - x_49 >= 1
a1204: z1_43_44 = 1 -> x_43 - x_44 >= 1
a1205: z1_43_45 = 1 -> x_43 - x_45 >= 1
a1206: z1_43_46 = 1 -> x_43 - x_46 >= 1
a1207: z1_43_47 = 1 -> x_43 - x_47 >= 1
a1208: z1_43_48 = 1 -> x_43 - x_48 >= 1
a1209: z1_43_49 = 1 -> x_43 - x_49 >= 1
a1210: z1_44_45 = 1 -> x_44 - x_45 >= 1
a1211: z1_44_46 = 1 -> x_44 - x_46 >= 1
a1212: z1_44_47 = 1 -> x_44 - x_47 >= 1
a1213: z1_44_48 = 1 -> x_44 - x_48 >= 1
a1214: z1_44_49 = 1 -> x_44 - x_49 >= 1
a1215: z1_45_46 = 1 -> x_45 - x_46 >= 1
a1216: z1_45_47 = 1 -> x_45 - x_47 >= 1
a1217: z1_45_48 = 1 -> x_45 - x_48 >= 1
a1218: z1_45_49 = 1 -> x_45 - x_49 >= 1
a1219: z1_46_47 = 1 -> x_46 - x_47 >= 1
a1220: z1_46_48 = 1 -> x_46 - x_48 >= 1
a1221: z1_46_49 = 1 -> x_46 - x_49 >= 1
a1222: z1_47_48 = 1 -> x_47 - x_48 >= 1
a1223: z1_47_49 = 1 -> x_47 - x_49 >= 1
a1224: z1_48_49 = 1 -> x_48 - x_49 >= 1
b0: z1_0_1 = 0 -> x_0 - x_1 <= -1
b1: z1_0_2 = 0 -> x_0 - x_2 <= -1
b2: z1_0_3 = 0 -> x_0 - x_3 <= -1
b3: z1_0_4 = 0 -> x_0 - x_4 <= -1
b4: z1_0_5 = 0 -> x_0 - x_5 <= -1
b5: z1_0_6 = 0 -> x_0 - x_6 <= -1
b6: z1_0_7 = 0 -> x_0 - x_7 <= -1
b7: z1_0_8 = 0 -> x_0 - x_8 <= -1
b8: z1_0_9 = 0 -> x_0 - x_9 <= -1
b9: z1_0_10 = 0 -> x_0 - x_10 <= -1
b10: z1_0_11 = 0 -> x_0 - x_11 <= -1
b11: z1_0_12 = 0 -> x_0 - x_12 <= -1
b12: z1_0_13 = 0 -> x_0 - x_13 <= -1
b13: z1_0_14 = 0 -> x_0 - x_14 <= -1
b14: z1_0_15 = 0 -> x_0 - x_15 <= -1
b15: z1_0_16 = 0 -> x_0 - x_16 <= -1
b16: z1_0_17 = 0 -> x_0 - x_17 <= -1
b17: z1_0_18 = 0 -> x_0 - x_18 <= -1
b18: z1_0_19 = 0 -> x_0 - x_19 <= -1
b19: z1_0_20 = 0 -> x_0 - x_20 <= -1
b20: z1_0_21 = 0 -> x_0 - x_21 <= -1
b21: z1_0_22 = 0 -> x_0 - x_22 <= -1
b22: z1_0_23 = 0 -> x_0 - x_23 <= -1
b23: z1_0_24 = 0 -> x_0 - x_24 <= -1
b24: z1_0_25 = 0 -> x_0 - x_25 <= -1
b25: z1_0_26 = 0 -> x_0 - x_26 <= -1
b26: z1_0_27 = 0 -> x_0 - x_27 <= -1
b27: z1_0_28 = 0 -> x_0 - x_28 <= -1
b28: z1_0_29 = 0 -> x_0 - x_29 <= -1
b29: z1_0_30 = 0 -> x_0 - x_30 <= -1
b30: z1_0_31 = 0 -> x_0 - x_31 <= -1
b31: z1_0_32 = 0 -> x_0 - x_32 <= -1
b32: z1_0_33 = 0 -> x_0 - x_33 <= -1
b33: z1_0_34 = 0 -> x_0 - x_34 <= -1
b34: z1_0_35 = 0 -> x_0 - x_35 <= -1
b35: z1_0_36 = 0 -> x_0 - x_36 <= -1
b36: z1_0_37 = 0 -> x_0 - x_37 <= -1
b37: z1_0_38 = 0 -> x_0 - x_38 <= -1
b38: z1_0_39 = 0 -> x_0 - x_39 <= -1
b39: z1_0_40 = 0 -> x_0 - x_40 <= -1
b40: z1_0_41 = 0 -> x_0 - x_41 <= -1
b41: z1_0_42 = 0 -> x_0 - x_42 <= -1
b42: z1_0_43 = 0 -> x_0 - x_43 <= -1
b43: z1_0_44 = 0 -> x_0 - x_44 <= -1
b44: z1_0_45 = 0 -> x_0 - x_45 <= -1
b45: z1_0_46 = 0 -> x_0 - x_46 <= -1
b46: z1_0_47 = 0 -> x_0 - x_47 <= -1
b47: z1_0_48 = 0 -> x_0 - x_48 <= -1
b48: z1_0_49 = 0 -> x_0 - x_49 <= -1
b49: z1_1_2 = 0 -> x_1 - x_2 <= -1
b50: z1_1_3 = 0 -> x_1 - x_3 <= -1
b51: z1_1_4 = 0 -> x_1 - x_4 <= -1
b52: z1_1_5 = 0 -> x_1 - x_5 <= -1
b53: z1_1_6 = 0 -> x_1 - x_6 <= -1
b54: z1_1_7 = 0 -> x_1 - x_7 <= -1
b55: z1_1_8 = 0 -> x_1 - x_8 <= -1
b56: z1_1_9 = 0 -> x_1 - x_9 <= -1
b57: z1_1_10 = 0 -> x_1 - x_10 <= -1
b58: z1_1_11 = 0 -> x_1 - x_11 <= -1
b59: z1_1_12 = 0 -> x_1 - x_12 <= -1
b60: z1_1_13 = 0 -> x_1 - x_13 <= -1
b61: z1_1_14 = 0 -> x_1 - x_14 <= -1
b62: z1_1_15 = 0 -> x_1 - x_15 <= -1
b63: z1_1_16 = 0 -> x_1 - x_16 <= -1
b64: z1_1_17 = 0 -> x_1 - x_17 <= -1
b65: z1_1_18 = 0 -> x_1 - x_18 <= -1
b66: z1_1_19 = 0 -> x_1 - x_19 <= -1
b67: z1_1_20 = 0 -> x_1 - x_20 <= -1
b68: z1_1_21 = 0 -> x_1 - x_21 <= -1
b69: z1_1_22 = 0 -> x_1 - x_22 <= -1
b70: z1_1_23 = 0 -> x_1 - x_23 <= -1
b71: z1_1_24 = 0 -> x_1 - x_24 <= -1
b72: z1_1_25 = 0 -> x_1 - x_25 <= -1
b73: z1_1_26 = 0 -> x_1 - x_26 <= -1
b74: z1_1_27 = 0 -> x_1 - x_27 <= -1
b75: z1_1_28 = 0 -> x_1 - x_28 <= -1
b76: z1_1_29 = 0 -> x_1 - x_29 <= -1
b77: z1_1_30 = 0 -> x_1 - x_30 <= -1
b78: z1_1_31 = 0 -> x_1 - x_31 <= -1
b79: z1_1_32 = 0 -> x_1 - x_32 <= -1
b80: z1_1_33 = 0 -> x_1 - x_33 <= -1
b81: z1_1_34 = 0 -> x_1 - x_34 <= -1
b82: z1_1_35 = 0 -> x_1 - x_35 <= -1
b83: z1_1_36 = 0 -> x_1 - x_36 <= -1
b84: z1_1_37 = 0 -> x_1 - x_37 <= -1
b85: z1_1_38 = 0 -> x_1 - x_38 <= -1
b86: z1_1_39 = 0 -> x_1 - x_39 <= -1
b87: z1_1_40 = 0 -> x_1 - x_40 <= -1
b88: z1_1_41 = 0 -> x_1 - x_41 <= -1
b89: z1_1_42 = 0 -> x_1 - x_42 <= -1
b90: z1_1_43 = 0 -> x_1 - x_43 <= -1
b91: z1_1_44 = 0 -> x_1 - x_44 <= -1
b92: z1_1_45 = 0 -> x_1 - x_45 <= -1
b93: z1_1_46 = 0 -> x_1 - x_46 <= -1
b94: z1_1_47 = 0 -> x_1 - x_47 <= -1
b95: z1_1_48 = 0 -> x_1 - x_48 <= -1
b96: z1_1_49 = 0 -> x_1 - x_49 <= -1
b97: z1_2_3 = 0 -> x_2 - x_3 <= -1
b98: z1_2_4 = 0 -> x_2 - x_4 <= -1
b99: z1_2_5 = 0 -> x_2 - x_5 <= -1
b100: z1_2_6 = 0 -> x_2 - x_6 <= -1
b101: z1_2_7 = 0 -> x_2 - x_7 <= -1
b102: z1_2_8 = 0 -> x_2 - x_8 <= -1
b103: z1_2_9 = 0 -> x_2 - x_9 <= -1
b104: z1_2_10 = 0 -> x_2 - x_10 <= -1
b105: z1_2_11 = 0 -> x_2 - x_11 <= -1
b106: z1_2_12 = 0 -> x_2 - x_12 <= -1
b107: z1_2_13 = 0 -> x_2 - x_13 <= -1
b108: z1_2_14 = 0 -> x_2 - x_14 <= -1
b109: z1_2_15 = 0 -> x_2 - x_15 <= -1
b110: z1_2_16 = 0 -> x_2 - x_16 <= -1
b111: z1_2_17 = 0 -> x_2 - x_17 <= -1
b112: z1_2_18 = 0 -> x_2 - x_18 <= -1
b113: z1_2_19 = 0 -> x_2 - x_19 <= -1
b114: z1_2_20 = 0 -> x_2 - x_20 <= -1
b115: z1_2_21 = 0 -> x_2 - x_21 <= -1
b116: z1_2_22 = 0 -> x_2 - x_22 <= -1
b117: z1_2_23 = 0 -> x_2 - x_23 <= -1
b118: z1_2_24 = 0 -> x_2 - x_24 <= -1
b119: z1_2_25 = 0 -> x_2 - x_25 <= -1
b120: z1_2_26 = 0 -> x_2 - x_26 <= -1
b121: z1_2_27 = 0 -> x_2 - x_27 <= -1
b122: z1_2_28 = 0 -> x_2 - x_28 <= -1
b123: z1_2_29 = 0 -> x_2 - x_29 <= -1
b124: z1_2_30 = 0 -> x_2 - x_30 <= -1
b125: z1_2_31 = 0 -> x_2 - x_31 <= -1
b126: z1_2_32 = 0 -> x_2 - x_32 <= -1
b127: z1_2_33 = 0 -> x_2 - x_33 <= -1
b128: z1_2_34 = 0 -> x_2 - x_34 <= -1
b129: z1_2_35 = 0 -> x_2 - x_35 <= -1
b130: z1_2_36 = 0 -> x_2 - x_36 <= -1
b131: z1_2_37 = 0 -> x_2 - x_37 <= -1
b132: z1_2_38 = 0 -> x_2 - x_38 <= -1
b133: z1_2_39 = 0 -> x_2 - x_39 <= -1
b134: z1_2_40 = 0 -> x_2 - x_40 <= -1
b135: z1_2_41 = 0 -> x_2 - x_41 <= -1
b136: z1_2_42 = 0 -> x_2 - x_42 <= -1
b137: z1_2_43 = 0 -> x_2 - x_43 <= -1
b138: z1_2_44 = 0 -> x_2 - x_44 <= -1
b139: z1_2_45 = 0 -> x_2 - x_45 <= -1
b140: z1_2_46 = 0 -> x_2 - x_46 <= -1
b141: z1_2_47 = 0 -> x_2 - x_47 <= -1
b142: z1_2_48 = 0 -> x_2 - x_48 <= -1
b143: z1_2_49 = 0 -> x_2 - x_49 <= -1
b144: z1_3_4 = 0 -> x_3 - x_4 <= -1
b145: z1_3_5 = 0 -> x_3 - x_5 <= -1
b146: z1_3_6 = 0 -> x_3 - x_6 <= -1
b147: z1_3_7 = 0 -> x_3 - x_7 <= -1
b148: z1_3_8 = 0 -> x_3 - x_8 <= -1
b149: z1_3_9 = 0 -> x_3 - x_9 <= -1
b150: z1_3_10 = 0 -> x_3 - x_10 <= -1
b151: z1_3_11 = 0 -> x_3 - x_11 <= -1
b152: z1_3_12 = 0 -> x_3 - x_12 <= -1
b153: z1_3_13 = 0 -> x_3 - x_13 <= -1
b154: z1_3_14 = 0 -> x_3 - x_14 <= -1
b155: z1_3_15 = 0 -> x_3 - x_15 <= -1
b156: z1_3_16 = 0 -> x_3 - x_16 <= -1
b157: z1_3_17 = 0 -> x_3 - x_17 <= -1
b158: z1_3_18 = 0 -> x_3 - x_18 <= -1
b159: z1_3_19 = 0 -> x_3 - x_19 <= -1
b160: z1_3_20 = 0 -> x_3 - x_20 <= -1
b161: z1_3_21 = 0 -> x_3 - x_21 <= -1
b162: z1_3_22 = 0 -> x_3 - x_22 <= -1
b163: z1_3_23 = 0 -> x_3 - x_23 <= -1
b164: z1_3_24 = 0 -> x_3 - x_24 <= -1
b165: z1_3_25 = 0 -> x_3 - x_25 <= -1
b166: z1_3_26 = 0 -> x_3 - x_26 <= -1
b167: z1_3_27 = 0 -> x_3 - x_27 <= -1
b168: z1_3_28 = 0 -> x_3 - x_28 <= -1
b169: z1_3_29 = 0 -> x_3 - x_29 <= -1
b170: z1_3_30 = 0 -> x_3 - x_30 <= -1
b171: z1_3_31 = 0 -> x_3 - x_31 <= -1
b172: z1_3_32 = 0 -> x_3 - x_32 <= -1
b173: z1_3_33 = 0 -> x_3 - x_33 <= -1
b174: z1_3_34 = 0 -> x_3 - x_34 <= -1
b175: z1_3_35 = 0 -> x_3 - x_35 <= -1
b176: z1_3_36 = 0 -> x_3 - x_36 <= -1
b177: z1_3_37 = 0 -> x_3 - x_37 <= -1
b178: z1_3_38 = 0 -> x_3 - x_38 <= -1
b179: z1_3_39 = 0 -> x_3 - x_39 <= -1
b180: z1_3_40 = 0 -> x_3 - x_40 <= -1
b181: z1_3_41 = 0 -> x_3 - x_41 <= -1
b182: z1_3_42 = 0 -> x_3 - x_42 <= -1
b183: z1_3_43 = 0 -> x_3 - x_43 <= -1
b184: z1_3_44 = 0 -> x_3 - x_44 <= -1
b185: z1_3_45 = 0 -> x_3 - x_45 <= -1
b186: z1_3_46 = 0 -> x_3 - x_46 <= -1
b187: z1_3_47 = 0 -> x_3 - x_47 <= -1
b188: z1_3_48 = 0 -> x_3 - x_48 <= -1
b189: z1_3_49 = 0 -> x_3 - x_49 <= -1
b190: z1_4_5 = 0 -> x_4 - x_5 <= -1
b191: z1_4_6 = 0 -> x_4 - x_6 <= -1
b192: z1_4_7 = 0 -> x_4 - x_7 <= -1
b193: z1_4_8 = 0 -> x_4 - x_8 <= -1
b194: z1_4_9 = 0 -> x_4 - x_9 <= -1
b195: z1_4_10 = 0 -> x_4 - x_10 <= -1
b196: z1_4_11 = 0 -> x_4 - x_11 <= -1
b197: z1_4_12 = 0 -> x_4 - x_12 <= -1
b198: z1_4_13 = 0 -> x_4 - x_13 <= -1
b199: z1_4_14 = 0 -> x_4 - x_14 <= -1
b200: z1_4_15 = 0 -> x_4 - x_15 <= -1
b201: z1_4_16 = 0 -> x_4 - x_16 <= -1
b202: z1_4_17 = 0 -> x_4 - x_17 <= -1
b203: z1_4_18 = 0 -> x_4 - x_18 <= -1
b204: z1_4_19 = 0 -> x_4 - x_19 <= -1
b205: z1_4_20 = 0 -> x_4 - x_20 <= -1
b206: z1_4_21 = 0 -> x_4 - x_21 <= -1
b207: z1_4_22 = 0 -> x_4 - x_22 <= -1
b208: z1_4_23 = 0 -> x_4 - x_23 <= -1
b209: z1_4_24 = 0 -> x_4 - x_24 <= -1
b210: z1_4_25 = 0 -> x_4 - x_25 <= -1
b211: z1_4_26 = 0 -> x_4 - x_26 <= -1
b212: z1_4_27 = 0 -> x_4 - x_27 <= -1
b213: z1_4_28 = 0 -> x_4 - x_28 <= -1
b214: z1_4_29 = 0 -> x_4 - x_29 <= -1
b215: z1_4_30 = 0 -> x_4 - x_30 <= -1
b216: z1_4_31 = 0 -> x_4 - x_31 <= -1
b217: z1_4_32 = 0 -> x_4 - x_32 <= -1
b218: z1_4_33 = 0 -> x_4 - x_33 <= -1
b219: z1_4_34 = 0 -> x_4 - x_34 <= -1
b220: z1_4_35 = 0 -> x_4 - x_35 <= -1
b221: z1_4_36 = 0 -> x_4 - x_36 <= -1
b222: z1_4_37 = 0 -> x_4 - x_37 <= -1
b223: z1_4_38 = 0 -> x_4 - x_38 <= -1
b224: z1_4_39 = 0 -> x_4 - x_39 <= -1
b225: z1_4_40 = 0 -> x_4 - x_40 <= -1
b226: z1_4_41 = 0 -> x_4 - x_41 <= -1
b227: z1_4_42 = 0 -> x_4 - x_42 <= -1
b228: z1_4_43 = 0 -> x_4 - x_43 <= -1
b229: z1_4_44 = 0 -> x_4 - x_44 <= -1
b230: z1_4_45 = 0 -> x_4 - x_45 <= -1
b231: z1_4_46 = 0 -> x_4 - x_46 <= -1
b232: z1_4_47 = 0 -> x_4 - x_47 <= -1
b233: z1_4_48 = 0 -> x_4 - x_48 <= -1
b234: z1_4_49 = 0 -> x_4 - x_49 <= -1
b235: z1_5_6 = 0 -> x_5 - x_6 <= -1
b236: z1_5_7 = 0 -> x_5 - x_7 <= -1
b237: z1_5_8 = 0 -> x_5 - x_8 <= -1
b238: z1_5_9 = 0 -> x_5 - x_9 <= -1
b239: z1_5_10 = 0 -> x_5 - x_10 <= -1
b240: z1_5_11 = 0 -> x_5 - x_11 <= -1
b241: z1_5_12 = 0 -> x_5 - x_12 <= -1
b242: z1_5_13 = 0 -> x_5 - x_13 <= -1
b243: z1_5_14 = 0 -> x_5 - x_14 <= -1
b244: z1_5_15 = 0 -> x_5 - x_15 <= -1
b245: z1_5_16 = 0 -> x_5 - x_16 <= -1
b246: z1_5_17 = 0 -> x_5 - x_17 <= -1
b247: z1_5_18 = 0 -> x_5 - x_18 <= -1
b248: z1_5_19 = 0 -> x_5 - x_19 <= -1
b249: z1_5_20 = 0 -> x_5 - x_20 <= -1
b250: z1_5_21 = 0 -> x_5 - x_21 <= -1
b251: z1_5_22 = 0 -> x_5 - x_22 <= -1
b252: z1_5_23 = 0 -> x_5 - x_23 <= -1
b253: z1_5_24 = 0 -> x_5 - x_24 <= -1
b254: z1_5_25 = 0 -> x_5 - x_25 <= -1
b255: z1_5_26 = 0 -> x_5 - x_26 <= -1
b256: z1_5_27 = 0 -> x_5 - x_27 <= -1
b257: z1_5_28 = 0 -> x_5 - x_28 <= -1
b258: z1_5_29 = 0 -> x_5 - x_29 <= -1
b259: z1_5_30 = 0 -> x_5 - x_30 <= -1
b260: z1_5_31 = 0 -> x_5 - x_31 <= -1
b261: z1_5_32 = 0 -> x_5 - x_32 <= -1
b262: z1_5_33 = 0 -> x_5 - x_33 <= -1
b263: z1_5_34 = 0 -> x_5 - x_34 <= -1
b264: z1_5_35 = 0 -> x_5 - x_35 <= -1
b265: z1_5_36 = 0 -> x_5 - x_36 <= -1
b266: z1_5_37 = 0 -> x_5 - x_37 <= -1
b267: z1_5_38 = 0 -> x_5 - x_38 <= -1
b268: z1_5_39 = 0 -> x_5 - x_39 <= -1
b269: z1_5_40 = 0 -> x_5 - x_40 <= -1
b270: z1_5_41 = 0 -> x_5 - x_41 <= -1
b271: z1_5_42 = 0 -> x_5 - x_42 <= -1
b272: z1_5_43 = 0 -> x_5 - x_43 <= -1
b273: z1_5_44 = 0 -> x_5 - x_44 <= -1
b274: z1_5_45 = 0 -> x_5 - x_45 <= -1
b275: z1_5_46 = 0 -> x_5 - x_46 <= -1
b276: z1_5_47 = 0 -> x_5 - x_47 <= -1
b277: z1_5_48 = 0 -> x_5 - x_48 <= -1
b278: z1_5_49 = 0 -> x_5 - x_49 <= -1
b279: z1_6_7 = 0 -> x_6 - x_7 <= -1
b280: z1_6_8 = 0 -> x_6 - x_8 <= -1
b281: z1_6_9 = 0 -> x_6 - x_9 <= -1
b282: z1_6_10 = 0 -> x_6 - x_10 <= -1
b283: z1_6_11 = 0 -> x_6 - x_11 <= -1
b284: z1_6_12 = 0 -> x_6 - x_12 <= -1
b285: z1_6_13 = 0 -> x_6 - x_13 <= -1
b286: z1_6_14 = 0 -> x_6 - x_14 <= -1
b287: z1_6_15 = 0 -> x_6 - x_15 <= -1
b288: z1_6_16 = 0 -> x_6 - x_16 <= -1
b289: z1_6_17 = 0 -> x_6 - x_17 <= -1
b290: z1_6_18 = 0 -> x_6 - x_18 <= -1
b291: z1_6_19 = 0 -> x_6 - x_19 <= -1
b292: z1_6_20 = 0 -> x_6 - x_20 <= -1
b293: z1_6_21 = 0 -> x_6 - x_21 <= -1
b294: z1_6_22 = 0 -> x_6 - x_22 <= -1
b295: z1_6_23 = 0 -> x_6 - x_23 <= -1
b296: z1_6_24 = 0 -> x_6 - x_24 <= -1
b297: z1_6_25 = 0 -> x_6 - x_25 <= -1
b298: z1_6_26 = 0 -> x_6 - x_26 <= -1
b299: z1_6_27 = 0 -> x_6 - x_27 <= -1
b300: z1_6_28 = 0 -> x_6 - x_28 <= -1
b301: z1_6_29 = 0 -> x_6 - x_29 <= -1
b302: z1_6_30 = 0 -> x_6 - x_30 <= -1
b303: z1_6_31 = 0 -> x_6 - x_31 <= -1
b304: z1_6_32 = 0 -> x_6 - x_32 <= -1
b305: z1_6_33 = 0 -> x_6 - x_33 <= -1
b306: z1_6_34 = 0 -> x_6 - x_34 <= -1
b307: z1_6_35 = 0 -> x_6 - x_35 <= -1
b308: z1_6_36 = 0 -> x_6 - x_36 <= -1
b309: z1_6_37 = 0 -> x_6 - x_37 <= -1
b310: z1_6_38 = 0 -> x_6 - x_38 <= -1
b311: z1_6_39 = 0 -> x_6 - x_39 <= -1
b312: z1_6_40 = 0 -> x_6 - x_40 <= -1
b313: z1_6_41 = 0 -> x_6 - x_41 <= -1
b314: z1_6_42 = 0 -> x_6 - x_42 <= -1
b315: z1_6_43 = 0 -> x_6 - x_43 <= -1
b316: z1_6_44 = 0 -> x_6 - x_44 <= -1
b317: z1_6_45 = 0 -> x_6 - x_45 <= -1
b318: z1_6_46 = 0 -> x_6 - x_46 <= -1
b319: z1_6_47 = 0 -> x_6 - x_47 <= -1
b320: z1_6_48 = 0 -> x_6 - x_48 <= -1
b321: z1_6_49 = 0 -> x_6 - x_49 <= -1
b322: z1_7_8 = 0 -> x_7 - x_8 <= -1
b323: z1_7_9 = 0 -> x_7 - x_9 <= -1
b324: z1_7_10 = 0 -> x_7 - x_10 <= -1
b325: z1_7_11 = 0 -> x_7 - x_11 <= -1
b326: z1_7_12 = 0 -> x_7 - x_12 <= -1
b327: z1_7_13 = 0 -> x_7 - x_13 <= -1
b328: z1_7_14 = 0 -> x_7 - x_14 <= -1
b329: z1_7_15 = 0 -> x_7 - x_15 <= -1
b330: z1_7_16 = 0 -> x_7 - x_16 <= -1
b331: z1_7_17 = 0 -> x_7 - x_17 <= -1
b332: z1_7_18 = 0 -> x_7 - x_18 <= -1
b333: z1_7_19 = 0 -> x_7 - x_19 <= -1
b334: z1_7_20 = 0 -> x_7 - x_20 <= -1
b335: z1_7_21 = 0 -> x_7 - x_21 <= -1
b336: z1_7_22 = 0 -> x_7 - x_22 <= -1
b337: z1_7_23 = 0 -> x_7 - x_23 <= -1
b338: z1_7_24 = 0 -> x_7 - x_24 <= -1
b339: z1_7_25 = 0 -> x_7 - x_25 <= -1
b340: z1_7_26 = 0 -> x_7 - x_26 <= -1
b341: z1_7_27 = 0 -> x_7 - x_27 <= -1
b342: z1_7_28 = 0 -> x_7 - x_28 <= -1
b343: z1_7_29 = 0 -> x_7 - x_29 <= -1
b344: z1_7_30 = 0 -> x_7 - x_30 <= -1
b345: z1_7_31 = 0 -> x_7 - x_31 <= -1
b346: z1_7_32 = 0 -> x_7 - x_32 <= -1
b347: z1_7_33 = 0 -> x_7 - x_33 <= -1
b348: z1_7_34 = 0 -> x_7 - x_34 <= -1
b349: z1_7_35 = 0 -> x_7 - x_35 <= -1
b350: z1_7_36 = 0 -> x_7 - x_36 <= -1
b351: z1_7_37 = 0 -> x_7 - x_37 <= -1
b352: z1_7_38 = 0 -> x_7 - x_38 <= -1
b353: z1_7_39 = 0 -> x_7 - x_39 <= -1
b354: z1_7_40 = 0 -> x_7 - x_40 <= -1
b355: z1_7_41 = 0 -> x_7 - x_41 <= -1
b356: z1_7_42 = 0 -> x_7 - x_42 <= -1
b357: z1_7_43 = 0 -> x_7 - x_43 <= -1
b358: z1_7_44 = 0 -> x_7 - x_44 <= -1
b359: z1_7_45 = 0 -> x_7 - x_45 <= -1
b360: z1_7_46 = 0 -> x_7 - x_46 <= -1
b361: z1_7_47 = 0 -> x_7 - x_47 <= -1
b362: z1_7_48 = 0 -> x_7 - x_48 <= -1
b363: z1_7_49 = 0 -> x_7 - x_49 <= -1
b364: z1_8_9 = 0 -> x_8 - x_9 <= -1
b365: z1_8_10 = 0 -> x_8 - x_10 <= -1
b366: z1_8_11 = 0 -> x_8 - x_11 <= -1
b367: z1_8_12 = 0 -> x_8 - x_12 <= -1
b368: z1_8_13 = 0 -> x_8 - x_13 <= -1
b369: z1_8_14 = 0 -> x_8 - x_14 <= -1
b370: z1_8_15 = 0 -> x_8 - x_15 <= -1
b371: z1_8_16 = 0 -> x_8 - x_16 <= -1
b372: z1_8_17 = 0 -> x_8 - x_17 <= -1
b373: z1_8_18 = 0 -> x_8 - x_18 <= -1
b374: z1_8_19 = 0 -> x_8 - x_19 <= -1
b375: z1_8_20 = 0 -> x_8 - x_20 <= -1
b376: z1_8_21 = 0 -> x_8 - x_21 <= -1
b377: z1_8_22 = 0 -> x_8 - x_22 <= -1
b378: z1_8_23 = 0 -> x_8 - x_23 <= -1
b379: z1_8_24 = 0 -> x_8 - x_24 <= -1
b380: z1_8_25 = 0 -> x_8 - x_25 <= -1
b381: z1_8_26 = 0 -> x_8 - x_26 <= -1
b382: z1_8_27 = 0 -> x_8 - x_27 <= -1
b383: z1_8_28 = 0 -> x_8 - x_28 <= -1
b384: z1_8_29 = 0 -> x_8 - x_29 <= -1
b385: z1_8_30 = 0 -> x_8 - x_30 <= -1
b386: z1_8_31 = 0 -> x_8 - x_31 <= -1
b387: z1_8_32 = 0 -> x_8 - x_32 <= -1
b388: z1_8_33 = 0 -> x_8 - x_33 <= -1
b389: z1_8_34 = 0 -> x_8 - x_34 <= -1
b390: z1_8_35 = 0 -> x_8 - x_35 <= -1
b391: z1_8_36 = 0 -> x_8 - x_36 <= -1
b392: z1_8_37 = 0 -> x_8 - x_37 <= -1
b393: z1_8_38 = 0 -> x_8 - x_38 <= -1
b394: z1_8_39 = 0 -> x_8 - x_39 <= -1
b395: z1_8_40 = 0 -> x_8 - x_40 <= -1
b396: z1_8_41 = 0 -> x_8 - x_41 <= -1
b397: z1_8_42 = 0 -> x_8 - x_42 <= -1
b398: z1_8_43 = 0 -> x_8 - x_43 <= -1
b399: z1_8_44 = 0 -> x_8 - x_44 <= -1
b400: z1_8_45 = 0 -> x_8 - x_45 <= -1
b401: z1_8_46 = 0 -> x_8 - x_46 <= -1
b402: z1_8_47 = 0 -> x_8 - x_47 <= -1
b403: z1_8_48 = 0 -> x_8 - x_48 <= -1
b404: z1_8_49 = 0 -> x_8 - x_49 <= -1
b405: z1_9_10 = 0 -> x_9 - x_10 <= -1
b406: z1_9_11 = 0 -> x_9 - x_11 <= -1
b407: z1_9_12 = 0 -> x_9 - x_12 <= -1
b408: z1_9_13 = 0 -> x_9 - x_13 <= -1
b409: z1_9_14 = 0 -> x_9 - x_14 <= -1
b410: z1_9_15 = 0 -> x_9 - x_15 <= -1
b411: z1_9_16 = 0 -> x_9 - x_16 <= -1
b412: z1_9_17 = 0 -> x_9 - x_17 <= -1
b413: z1_9_18 = 0 -> x_9 - x_18 <= -1
b414: z1_9_19 = 0 -> x_9 - x_19 <= -1
b415: z1_9_20 = 0 -> x_9 - x_20 <= -1
b416: z1_9_21 = 0 -> x_9 - x_21 <= -1
b417: z1_9_22 = 0 -> x_9 - x_22 <= -1
b418: z1_9_23 = 0 -> x_9 - x_23 <= -1
b419: z1_9_24 = 0 -> x_9 - x_24 <= -1
b420: z1_9_25 = 0 -> x_9 - x_25 <= -1
b421: z1_9_26 = 0 -> x_9 - x_26 <= -1
b422: z1_9_27 = 0 -> x_9 - x_27 <= -1
b423: z1_9_28 = 0 -> x_9 - x_28 <= -1
b424: z1_9_29 = 0 -> x_9 - x_29 <= -1
b425: z1_9_30 = 0 -> x_9 - x_30 <= -1
b426: z1_9_31 = 0 -> x_9 - x_31 <= -1
b427: z1_9_32 = 0 -> x_9 - x_32 <= -1
b428: z1_9_33 = 0 -> x_9 - x_33 <= -1
b429: z1_9_34 = 0 -> x_9 - x_34 <= -1
b430: z1_9_35 = 0 -> x_9 - x_35 <= -1
b431: z1_9_36 = 0 -> x_9 - x_36 <= -1
b432: z1_9_37 = 0 -> x_9 - x_37 <= -1
b433: z1_9_38 = 0 -> x_9 - x_38 <= -1
b434: z1_9_39 = 0 -> x_9 - x_39 <= -1
b435: z1_9_40 = 0 -> x_9 - x_40 <= -1
b436: z1_9_41 = 0 -> x_9 - x_41 <= -1
b437: z1_9_42 = 0 -> x_9 - x_42 <= -1
b438: z1_9_43 = 0 -> x_9 - x_43 <= -1
b439: z1_9_44 = 0 -> x_9 - x_44 <= -1
b440: z1_9_45 = 0 -> x_9 - x_45 <= -1
b441: z1_9_46 = 0 -> x_9 - x_46 <= -1
b442: z1_9_47 = 0 -> x_9 - x_47 <= -1
b443: z1_9_48 = 0 -> x_9 - x_48 <= -1
b444: z1_9_49 = 0 -> x_9 - x_49 <= -1
b445: z1_10_11 = 0 -> x_10 - x_11 <= -1
b446: z1_10_12 = 0 -> x_10 - x_12 <= -1
b447: z1_10_13 = 0 -> x_10 - x_13 <= -1
b448: z1_10_14 = 0 -> x_10 - x_14 <= -1
b449: z1_10_15 = 0 -> x_10 - x_15 <= -1
b450: z1_10_16 = 0 -> x_10 - x_16 <= -1
b451: z1_10_17 = 0 -> x_10 - x_17 <= -1
b452: z1_10_18 = 0 -> x_10 - x_18 <= -1
b453: z1_10_19 = 0 -> x_10 - x_19 <= -1
b454: z1_10_20 = 0 -> x_10 - x_20 <= -1
b455: z1_10_21 = 0 -> x_10 - x_21 <= -1
b456: z1_10_22 = 0 -> x_10 - x_22 <= -1
b457: z1_10_23 = 0 -> x_10 - x_23 <= -1
b458: z1_10_24 = 0 -> x_10 - x_24 <= -1
b459: z1_10_25 = 0 -> x_10 - x_25 <= -1
b460: z1_10_26 = 0 -> x_10 - x_26 <= -1
b461: z1_10_27 = 0 -> x_10 - x_27 <= -1
b462: z1_10_28 = 0 -> x_10 - x_28 <= -1
b463: z1_10_29 = 0 -> x_10 - x_29 <= -1
b464: z1_10_30 = 0 -> x_10 - x_30 <= -1
b465: z1_10_31 = 0 -> x_10 - x_31 <= -1
b466: z1_10_32 = 0 -> x_10 - x_32 <= -1
b467: z1_10_33 = 0 -> x_10 - x_33 <= -1
b468: z1_10_34 = 0 -> x_10 - x_34 <= -1
b469: z1_10_35 = 0 -> x_10 - x_35 <= -1
b470: z1_10_36 = 0 -> x_10 - x_36 <= -1
b471: z1_10_37 = 0 -> x_10 - x_37 <= -1
b472: z1_10_38 = 0 -> x_10 - x_38 <= -1
b473: z1_10_39 = 0 -> x_10 - x_39 <= -1
b474: z1_10_40 = 0 -> x_10 - x_40 <= -1
b475: z1_10_41 = 0 -> x_10 - x_41 <= -1
b476: z1_10_42 = 0 -> x_10 - x_42 <= -1
b477: z1_10_43 = 0 -> x_10 - x_43 <= -1
b478: z1_10_44 = 0 -> x_10 - x_44 <= -1
b479: z1_10_45 = 0 -> x_10 - x_45 <= -1
b480: z1_10_46 = 0 -> x_10 - x_46 <= -1
b481: z1_10_47 = 0 -> x_10 - x_47 <= -1
b482: z1_10_48 = 0 -> x_10 - x_48 <= -1
b483: z1_10_49 = 0 -> x_10 - x_49 <= -1
b484: z1_11_12 = 0 -> x_11 - x_12 <= -1
b485: z1_11_13 = 0 -> x_11 - x_13 <= -1
b486: z1_11_14 = 0 -> x_11 - x_14 <= -1
b487: z1_11_15 = 0 -> x_11 - x_15 <= -1
b488: z1_11_16 = 0 -> x_11 - x_16 <= -1
b489: z1_11_17 = 0 -> x_11 - x_17 <= -1
b490: z1_11_18 = 0 -> x_11 - x_18 <= -1
b491: z1_11_19 = 0 -> x_11 - x_19 <= -1
b492: z1_11_20 = 0 -> x_11 - x_20 <= -1
b493: z1_11_21 = 0 -> x_11 - x_21 <= -1
b494: z1_11_22 = 0 -> x_11 - x_22 <= -1
b495: z1_11_23 = 0 -> x_11 - x_23 <= -1
b496: z1_11_24 = 0 -> x_11 - x_24 <= -1
b497: z1_11_25 = 0 -> x_11 - x_25 <= -1
b498: z1_11_26 = 0 -> x_11 - x_26 <= -1
b499: z1_11_27 = 0 -> x_11 - x_27 <= -1
b500: z1_11_28 = 0 -> x_11 - x_28 <= -1
b501: z1_11_29 = 0 -> x_11 - x_29 <= -1
b502: z1_11_30 = 0 -> x_11 - x_30 <= -1
b503: z1_11_31 = 0 -> x_11 - x_31 <= -1
b504: z1_11_32 = 0 -> x_11 - x_32 <= -1
b505: z1_11_33 = 0 -> x_11 - x_33 <= -1
b506: z1_11_34 = 0 -> x_11 - x_34 <= -1
b507: z1_11_35 = 0 -> x_11 - x_35 <= -1
b508: z1_11_36 = 0 -> x_11 - x_36 <= -1
b509: z1_11_37 = 0 -> x_11 - x_37 <= -1
b510: z1_11_38 = 0 -> x_11 - x_38 <= -1
b511: z1_11_39 = 0 -> x_11 - x_39 <= -1
b512: z1_11_40 = 0 -> x_11 - x_40 <= -1
b513: z1_11_41 = 0 -> x_11 - x_41 <= -1
b514: z1_11_42 = 0 -> x_11 - x_42 <= -1
b515: z1_11_43 = 0 -> x_11 - x_43 <= -1
b516: z1_11_44 = 0 -> x_11 - x_44 <= -1
b517: z1_11_45 = 0 -> x_11 - x_45 <= -1
b518: z1_11_46 = 0 -> x_11 - x_46 <= -1
b519: z1_11_47 = 0 -> x_11 - x_47 <= -1
b520: z1_11_48 = 0 -> x_11 - x_48 <= -1
b521: z1_11_49 = 0 -> x_11 - x_49 <= -1
b522: z1_12_13 = 0 -> x_12 - x_13 <= -1
b523: z1_12_14 = 0 -> x_12 - x_14 <= -1
b524: z1_12_15 = 0 -> x_12 - x_15 <= -1
b525: z1_12_16 = 0 -> x_12 - x_16 <= -1
b526: z1_12_17 = 0 -> x_12 - x_17 <= -1
b527: z1_12_18 = 0 -> x_12 - x_18 <= -1
b528: z1_12_19 = 0 -> x_12 - x_19 <= -1
b529: z1_12_20 = 0 -> x_12 - x_20 <= -1
b530: z1_12_21 = 0 -> x_12 - x_21 <= -1
b531: z1_12_22 = 0 -> x_12 - x_22 <= -1
b532: z1_12_23 = 0 -> x_12 - x_23 <= -1
b533: z1_12_24 = 0 -> x_12 - x_24 <= -1
b534: z1_12_25 = 0 -> x_12 - x_25 <= -1
b535: z1_12_26 = 0 -> x_12 - x_26 <= -1
b536: z1_12_27 = 0 -> x_12 - x_27 <= -1
b537: z1_12_28 = 0 -> x_12 - x_28 <= -1
b538: z1_12_29 = 0 -> x_12 - x_29 <= -1
b539: z1_12_30 = 0 -> x_12 - x_30 <= -1
b540: z1_12_31 = 0 -> x_12 - x_31 <= -1
b541: z1_12_32 = 0 -> x_12 - x_32 <= -1
b542: z1_12_33 = 0 -> x_12 - x_33 <= -1
b543: z1_12_34 = 0 -> x_12 - x_34 <= -1
b544: z1_12_35 = 0 -> x_12 - x_35 <= -1
b545: z1_12_36 = 0 -> x_12 - x_36 <= -1
b546: z1_12_37 = 0 -> x_12 - x_37 <= -1
b547: z1_12_38 = 0 -> x_12 - x_38 <= -1
b548: z1_12_39 = 0 -> x_12 - x_39 <= -1
b549: z1_12_40 = 0 -> x_12 - x_40 <= -1
b550: z1_12_41 = 0 -> x_12 - x_41 <= -1
b551: z1_12_42 = 0 -> x_12 - x_42 <= -1
b552: z1_12_43 = 0 -> x_12 - x_43 <= -1
b553: z1_12_44 = 0 -> x_12 - x_44 <= -1
b554: z1_12_45 = 0 -> x_12 - x_45 <= -1
b555: z1_12_46 = 0 -> x_12 - x_46 <= -1
b556: z1_12_47 = 0 -> x_12 - x_47 <= -1
b557: z1_12_48 = 0 -> x_12 - x_48 <= -1
b558: z1_12_49 = 0 -> x_12 - x_49 <= -1
b559: z1_13_14 = 0 -> x_13 - x_14 <= -1
b560: z1_13_15 = 0 -> x_13 - x_15 <= -1
b561: z1_13_16 = 0 -> x_13 - x_16 <= -1
b562: z1_13_17 = 0 -> x_13 - x_17 <= -1
b563: z1_13_18 = 0 -> x_13 - x_18 <= -1
b564: z1_13_19 = 0 -> x_13 - x_19 <= -1
b565: z1_13_20 = 0 -> x_13 - x_20 <= -1
b566: z1_13_21 = 0 -> x_13 - x_21 <= -1
b567: z1_13_22 = 0 -> x_13 - x_22 <= -1
b568: z1_13_23 = 0 -> x_13 - x_23 <= -1
b569: z1_13_24 = 0 -> x_13 - x_24 <= -1
b570: z1_13_25 = 0 -> x_13 - x_25 <= -1
b571: z1_13_26 = 0 -> x_13 - x_26 <= -1
b572: z1_13_27 = 0 -> x_13 - x_27 <= -1
b573: z1_13_28 = 0 -> x_13 - x_28 <= -1
b574: z1_13_29 = 0 -> x_13 - x_29 <= -1
b575: z1_13_30 = 0 -> x_13 - x_30 <= -1
b576: z1_13_31 = 0 -> x_13 - x_31 <= -1
b577: z1_13_32 = 0 -> x_13 - x_32 <= -1
b578: z1_13_33 = 0 -> x_13 - x_33 <= -1
b579: z1_13_34 = 0 -> x_13 - x_34 <= -1
b580: z1_13_35 = 0 -> x_13 - x_35 <= -1
b581: z1_13_36 = 0 -> x_13 - x_36 <= -1
b582: z1_13_37 = 0 -> x_13 - x_37 <= -1
b583: z1_13_38 = 0 -> x_13 - x_38 <= -1
b584: z1_13_39 = 0 -> x_13 - x_39 <= -1
b585: z1_13_40 = 0 -> x_13 - x_40 <= -1
b586: z1_13_41 = 0 -> x_13 - x_41 <= -1
b587: z1_13_42 = 0 -> x_13 - x_42 <= -1
b588: z1_13_43 = 0 -> x_13 - x_43 <= -1
b589: z1_13_44 = 0 -> x_13 - x_44 <= -1
b590: z1_13_45 = 0 -> x_13 - x_45 <= -1
b591: z1_13_46 = 0 -> x_13 - x_46 <= -1
b592: z1_13_47 = 0 -> x_13 - x_47 <= -1
b593: z1_13_48 = 0 -> x_13 - x_48 <= -1
b594: z1_13_49 = 0 -> x_13 - x_49 <= -1
b595: z1_14_15 = 0 -> x_14 - x_15 <= -1
b596: z1_14_16 = 0 -> x_14 - x_16 <= -1
b597: z1_14_17 = 0 -> x_14 - x_17 <= -1
b598: z1_14_18 = 0 -> x_14 - x_18 <= -1
b599: z1_14_19 = 0 -> x_14 - x_19 <= -1
b600: z1_14_20 = 0 -> x_14 - x_20 <= -1
b601: z1_14_21 = 0 -> x_14 - x_21 <= -1
b602: z1_14_22 = 0 -> x_14 - x_22 <= -1
b603: z1_14_23 = 0 -> x_14 - x_23 <= -1
b604: z1_14_24 = 0 -> x_14 - x_24 <= -1
b605: z1_14_25 = 0 -> x_14 - x_25 <= -1
b606: z1_14_26 = 0 -> x_14 - x_26 <= -1
b607: z1_14_27 = 0 -> x_14 - x_27 <= -1
b608: z1_14_28 = 0 -> x_14 - x_28 <= -1
b609: z1_14_29 = 0 -> x_14 - x_29 <= -1
b610: z1_14_30 = 0 -> x_14 - x_30 <= -1
b611: z1_14_31 = 0 -> x_14 - x_31 <= -1
b612: z1_14_32 = 0 -> x_14 - x_32 <= -1
b613: z1_14_33 = 0 -> x_14 - x_33 <= -1
b614: z1_14_34 = 0 -> x_14 - x_34 <= -1
b615: z1_14_35 = 0 -> x_14 - x_35 <= -1
b616: z1_14_36 = 0 -> x_14 - x_36 <= -1
b617: z1_14_37 = 0 -> x_14 - x_37 <= -1
b618: z1_14_38 = 0 -> x_14 - x_38 <= -1
b619: z1_14_39 = 0 -> x_14 - x_39 <= -1
b620: z1_14_40 = 0 -> x_14 - x_40 <= -1
b621: z1_14_41 = 0 -> x_14 - x_41 <= -1
b622: z1_14_42 = 0 -> x_14 - x_42 <= -1
b623: z1_14_43 = 0 -> x_14 - x_43 <= -1
b624: z1_14_44 = 0 -> x_14 - x_44 <= -1
b625: z1_14_45 = 0 -> x_14 - x_45 <= -1
b626: z1_14_46 = 0 -> x_14 - x_46 <= -1
b627: z1_14_47 = 0 -> x_14 - x_47 <= -1
b628: z1_14_48 = 0 -> x_14 - x_48 <= -1
b629: z1_14_49 = 0 -> x_14 - x_49 <= -1
b630: z1_15_16 = 0 -> x_15 - x_16 <= -1
b631: z1_15_17 = 0 -> x_15 - x_17 <= -1
b632: z1_15_18 = 0 -> x_15 - x_18 <= -1
b633: z1_15_19 = 0 -> x_15 - x_19 <= -1
b634: z1_15_20 = 0 -> x_15 - x_20 <= -1
b635: z1_15_21 = 0 -> x_15 - x_21 <= -1
b636: z1_15_22 = 0 -> x_15 - x_22 <= -1
b637: z1_15_23 = 0 -> x_15 - x_23 <= -1
b638: z1_15_24 = 0 -> x_15 - x_24 <= -1
b639: z1_15_25 = 0 -> x_15 - x_25 <= -1
b640: z1_15_26 = 0 -> x_15 - x_26 <= -1
b641: z1_15_27 = 0 -> x_15 - x_27 <= -1
b642: z1_15_28 = 0 -> x_15 - x_28 <= -1
b643: z1_15_29 = 0 -> x_15 - x_29 <= -1
b644: z1_15_30 = 0 -> x_15 - x_30 <= -1
b645: z1_15_31 = 0 -> x_15 - x_31 <= -1
b646: z1_15_32 = 0 -> x_15 - x_32 <= -1
b647: z1_15_33 = 0 -> x_15 - x_33 <= -1
b648: z1_15_34 = 0 -> x_15 - x_34 <= -1
b649: z1_15_35 = 0 -> x_15 - x_35 <= -1
b650: z1_15_36 = 0 -> x_15 - x_36 <= -1
b651: z1_15_37 = 0 -> x_15 - x_37 <= -1
b652: z1_15_38 = 0 -> x_15 - x_38 <= -1
b653: z1_15_39 = 0 -> x_15 - x_39 <= -1
b654: z1_15_40 = 0 -> x_15 - x_40 <= -1
b655: z1_15_41 = 0 -> x_15 - x_41 <= -1
b656: z1_15_42 = 0 -> x_15 - x_42 <= -1
b657: z1_15_43 = 0 -> x_15 - x_43 <= -1
b658: z1_15_44 = 0 -> x_15 - x_44 <= -1
b659: z1_15_45 = 0 -> x_15 - x_45 <= -1
b660: z1_15_46 = 0 -> x_15 - x_46 <= -1
b661: z1_15_47 = 0 -> x_15 - x_47 <= -1
b662: z1_15_48 = 0 -> x_15 - x_48 <= -1
b663: z1_15_49 = 0 -> x_15 - x_49 <= -1
b664: z1_16_17 = 0 -> x_16 - x_17 <= -1
b665: z1_16_18 = 0 -> x_16 - x_18 <= -1
b666: z1_16_19 = 0 -> x_16 - x_19 <= -1
b667: z1_16_20 = 0 -> x_16 - x_20 <= -1
b668: z1_16_21 = 0 -> x_16 - x_21 <= -1
b669: z1_16_22 = 0 -> x_16 - x_22 <= -1
b670: z1_16_23 = 0 -> x_16 - x_23 <= -1
b671: z1_16_24 = 0 -> x_16 - x_24 <= -1
b672: z1_16_25 = 0 -> x_16 - x_25 <= -1
b673: z1_16_26 = 0 -> x_16 - x_26 <= -1
b674: z1_16_27 = 0 -> x_16 - x_27 <= -1
b675: z1_16_28 = 0 -> x_16 - x_28 <= -1
b676: z1_16_29 = 0 -> x_16 - x_29 <= -1
b677: z1_16_30 = 0 -> x_16 - x_30 <= -1
b678: z1_16_31 = 0 -> x_16 - x_31 <= -1
b679: z1_16_32 = 0 -> x_16 - x_32 <= -1
b680: z1_16_33 = 0 -> x_16 - x_33 <= -1
b681: z1_16_34 = 0 -> x_16 - x_34 <= -1
b682: z1_16_35 = 0 -> x_16 - x_35 <= -1
b683: z1_16_36 = 0 -> x_16 - x_36 <= -1
b684: z1_16_37 = 0 -> x_16 - x_37 <= -1
b685: z1_16_38 = 0 -> x_16 - x_38 <= -1
b686: z1_16_39 = 0 -> x_16 - x_39 <= -1
b687: z1_16_40 = 0 -> x_16 - x_40 <= -1
b688: z1_16_41 = 0 -> x_16 - x_41 <= -1
b689: z1_16_42 = 0 -> x_16 - x_42 <= -1
b690: z1_16_43 = 0 -> x_16 - x_43 <= -1
b691: z1_16_44 = 0 -> x_16 - x_44 <= -1
b692: z1_16_45 = 0 -> x_16 - x_45 <= -1
b693: z1_16_46 = 0 -> x_16 - x_46 <= -1
b694: z1_16_47 = 0 -> x_16 - x_47 <= -1
b695: z1_16_48 = 0 -> x_16 - x_48 <= -1
b696: z1_16_49 = 0 -> x_16 - x_49 <= -1
b697: z1_17_18 = 0 -> x_17 - x_18 <= -1
b698: z1_17_19 = 0 -> x_17 - x_19 <= -1
b699: z1_17_20 = 0 -> x_17 - x_20 <= -1
b700: z1_17_21 = 0 -> x_17 - x_21 <= -1
b701: z1_17_22 = 0 -> x_17 - x_22 <= -1
b702: z1_17_23 = 0 -> x_17 - x_23 <= -1
b703: z1_17_24 = 0 -> x_17 - x_24 <= -1
b704: z1_17_25 = 0 -> x_17 - x_25 <= -1
b705: z1_17_26 = 0 -> x_17 - x_26 <= -1
b706: z1_17_27 = 0 -> x_17 - x_27 <= -1
b707: z1_17_28 = 0 -> x_17 - x_28 <= -1
b708: z1_17_29 = 0 -> x_17 - x_29 <= -1
b709: z1_17_30 = 0 -> x_17 - x_30 <= -1
b710: z1_17_31 = 0 -> x_17 - x_31 <= -1
b711: z1_17_32 = 0 -> x_17 - x_32 <= -1
b712: z1_17_33 = 0 -> x_17 - x_33 <= -1
b713: z1_17_34 = 0 -> x_17 - x_34 <= -1
b714: z1_17_35 = 0 -> x_17 - x_35 <= -1
b715: z1_17_36 = 0 -> x_17 - x_36 <= -1
b716: z1_17_37 = 0 -> x_17 - x_37 <= -1
b717: z1_17_38 = 0 -> x_17 - x_38 <= -1
b718: z1_17_39 = 0 -> x_17 - x_39 <= -1
b719: z1_17_40 = 0 -> x_17 - x_40 <= -1
b720: z1_17_41 = 0 -> x_17 - x_41 <= -1
b721: z1_17_42 = 0 -> x_17 - x_42 <= -1
b722: z1_17_43 = 0 -> x_17 - x_43 <= -1
b723: z1_17_44 = 0 -> x_17 - x_44 <= -1
b724: z1_17_45 = 0 -> x_17 - x_45 <= -1
b725: z1_17_46 = 0 -> x_17 - x_46 <= -1
b726: z1_17_47 = 0 -> x_17 - x_47 <= -1
b727: z1_17_48 = 0 -> x_17 - x_48 <= -1
b728: z1_17_49 = 0 -> x_17 - x_49 <= -1
b729: z1_18_19 = 0 -> x_18 - x_19 <= -1
b730: z1_18_20 = 0 -> x_18 - x_20 <= -1
b731: z1_18_21 = 0 -> x_18 - x_21 <= -1
b732: z1_18_22 = 0 -> x_18 - x_22 <= -1
b733: z1_18_23 = 0 -> x_18 - x_23 <= -1
b734: z1_18_24 = 0 -> x_18 - x_24 <= -1
b735: z1_18_25 = 0 -> x_18 - x_25 <= -1
b736: z1_18_26 = 0 -> x_18 - x_26 <= -1
b737: z1_18_27 = 0 -> x_18 - x_27 <= -1
b738: z1_18_28 = 0 -> x_18 - x_28 <= -1
b739: z1_18_29 = 0 -> x_18 - x_29 <= -1
b740: z1_18_30 = 0 -> x_18 - x_30 <= -1
b741: z1_18_31 = 0 -> x_18 - x_31 <= -1
b742: z1_18_32 = 0 -> x_18 - x_32 <= -1
b743: z1_18_33 = 0 -> x_18 - x_33 <= -1
b744: z1_18_34 = 0 -> x_18 - x_34 <= -1
b745: z1_18_35 = 0 -> x_18 - x_35 <= -1
b746: z1_18_36 = 0 -> x_18 - x_36 <= -1
b747: z1_18_37 = 0 -> x_18 - x_37 <= -1
b748: z1_18_38 = 0 -> x_18 - x_38 <= -1
b749: z1_18_39 = 0 -> x_18 - x_39 <= -1
b750: z1_18_40 = 0 -> x_18 - x_40 <= -1
b751: z1_18_41 = 0 -> x_18 - x_41 <= -1
b752: z1_18_42 = 0 -> x_18 - x_42 <= -1
b753: z1_18_43 = 0 -> x_18 - x_43 <= -1
b754: z1_18_44 = 0 -> x_18 - x_44 <= -1
b755: z1_18_45 = 0 -> x_18 - x_45 <= -1
b756: z1_18_46 = 0 -> x_18 - x_46 <= -1
b757: z1_18_47 = 0 -> x_18 - x_47 <= -1
b758: z1_18_48 = 0 -> x_18 - x_48 <= -1
b759: z1_18_49 = 0 -> x_18 - x_49 <= -1
b760: z1_19_20 = 0 -> x_19 - x_20 <= -1
b761: z1_19_21 = 0 -> x_19 - x_21 <= -1
b762: z1_19_22 = 0 -> x_19 - x_22 <= -1
b763: z1_19_23 = 0 -> x_19 - x_23 <= -1
b764: z1_19_24 = 0 -> x_19 - x_24 <= -1
b765: z1_19_25 = 0 -> x_19 - x_25 <= -1
b766: z1_19_26 = 0 -> x_19 - x_26 <= -1
b767: z1_19_27 = 0 -> x_19 - x_27 <= -1
b768: z1_19_28 = 0 -> x_19 - x_28 <= -1
b769: z1_19_29 = 0 -> x_19 - x_29 <= -1
b770: z1_19_30 = 0 -> x_19 - x_30 <= -1
b771: z1_19_31 = 0 -> x_19 - x_31 <= -1
b772: z1_19_32 = 0 -> x_19 - x_32 <= -1
b773: z1_19_33 = 0 -> x_19 - x_33 <= -1
b774: z1_19_34 = 0 -> x_19 - x_34 <= -1
b775: z1_19_35 = 0 -> x_19 - x_35 <= -1
b776: z1_19_36 = 0 -> x_19 - x_36 <= -1
b777: z1_19_37 = 0 -> x_19 - x_37 <= -1
b778: z1_19_38 = 0 -> x_19 - x_38 <= -1
b779: z1_19_39 = 0 -> x_19 - x_39 <= -1
b780: z1_19_40 = 0 -> x_19 - x_40 <= -1
b781: z1_19_41 = 0 -> x_19 - x_41 <= -1
b782: z1_19_42 = 0 -> x_19 - x_42 <= -1
b783: z1_19_43 = 0 -> x_19 - x_43 <= -1
b784: z1_19_44 = 0 -> x_19 - x_44 <= -1
b785: z1_19_45 = 0 -> x_19 - x_45 <= -1
b786: z1_19_46 = 0 -> x_19 - x_46 <= -1
b787: z1_19_47 = 0 -> x_19 - x_47 <= -1
b788: z1_19_48 = 0 -> x_19 - x_48 <= -1
b789: z1_19_49 = 0 -> x_19 - x_49 <= -1
b790: z1_20_21 = 0 -> x_20 - x_21 <= -1
b791: z1_20_22 = 0 -> x_20 - x_22 <= -1
b792: z1_20_23 = 0 -> x_20 - x_23 <= -1
b793: z1_20_24 = 0 -> x_20 - x_24 <= -1
b794: z1_20_25 = 0 -> x_20 - x_25 <= -1
b795: z1_20_26 = 0 -> x_20 - x_26 <= -1
b796: z1_20_27 = 0 -> x_20 - x_27 <= -1
b797: z1_20_28 = 0 -> x_20 - x_28 <= -1
b798: z1_20_29 = 0 -> x_20 - x_29 <= -1
b799: z1_20_30 = 0 -> x_20 - x_30 <= -1
b800: z1_20_31 = 0 -> x_20 - x_31 <= -1
b801: z1_20_32 = 0 -> x_20 - x_32 <= -1
b802: z1_20_33 = 0 -> x_20 - x_33 <= -1
b803: z1_20_34 = 0 -> x_20 - x_34 <= -1
b804: z1_20_35 = 0 -> x_20 - x_35 <= -1
b805: z1_20_36 = 0 -> x_20 - x_36 <= -1
b806: z1_20_37 = 0 -> x_20 - x_37 <= -1
b807: z1_20_38 = 0 -> x_20 - x_38 <= -1
b808: z1_20_39 = 0 -> x_20 - x_39 <= -1
b809: z1_20_40 = 0 -> x_20 - x_40 <= -1
b810: z1_20_41 = 0 -> x_20 - x_41 <= -1
b811: z1_20_42 = 0 -> x_20 - x_42 <= -1
b812: z1_20_43 = 0 -> x_20 - x_43 <= -1
b813: z1_20_44 = 0 -> x_20 - x_44 <= -1
b814: z1_20_45 = 0 -> x_20 - x_45 <= -1
b815: z1_20_46 = 0 -> x_20 - x_46 <= -1
b816: z1_20_47 = 0 -> x_20 - x_47 <= -1
b817: z1_20_48 = 0 -> x_20 - x_48 <= -1
b818: z1_20_49 = 0 -> x_20 - x_49 <= -1
b819: z1_21_22 = 0 -> x_21 - x_22 <= -1
b820: z1_21_23 = 0 -> x_21 - x_23 <= -1
b821: z1_21_24 = 0 -> x_21 - x_24 <= -1
b822: z1_21_25 = 0 -> x_21 - x_25 <= -1
b823: z1_21_26 = 0 -> x_21 - x_26 <= -1
b824: z1_21_27 = 0 -> x_21 - x_27 <= -1
b825: z1_21_28 = 0 -> x_21 - x_28 <= -1
b826: z1_21_29 = 0 -> x_21 - x_29 <= -1
b827: z1_21_30 = 0 -> x_21 - x_30 <= -1
b828: z1_21_31 = 0 -> x_21 - x_31 <= -1
b829: z1_21_32 = 0 -> x_21 - x_32 <= -1
b830: z1_21_33 = 0 -> x_21 - x_33 <= -1
b831: z1_21_34 = 0 -> x_21 - x_34 <= -1
b832: z1_21_35 = 0 -> x_21 - x_35 <= -1
b833: z1_21_36 = 0 -> x_21 - x_36 <= -1
b834: z1_21_37 = 0 -> x_21 - x_37 <= -1
b835: z1_21_38 = 0 -> x_21 - x_38 <= -1
b836: z1_21_39 = 0 -> x_21 - x_39 <= -1
b837: z1_21_40 = 0 -> x_21 - x_40 <= -1
b838: z1_21_41 = 0 -> x_21 - x_41 <= -1
b839: z1_21_42 = 0 -> x_21 - x_42 <= -1
b840: z1_21_43 = 0 -> x_21 - x_43 <= -1
b841: z1_21_44 = 0 -> x_21 - x_44 <= -1
b842: z1_21_45 = 0 -> x_21 - x_45 <= -1
b843: z1_21_46 = 0 -> x_21 - x_46 <= -1
b844: z1_21_47 = 0 -> x_21 - x_47 <= -1
b845: z1_21_48 = 0 -> x_21 - x_48 <= -1
b846: z1_21_49 = 0 -> x_21 - x_49 <= -1
b847: z1_22_23 = 0 -> x_22 - x_23 <= -1
b848: z1_22_24 = 0 -> x_22 - x_24 <= -1
b849: z1_22_25 = 0 -> x_22 - x_25 <= -1
b850: z1_22_26 = 0 -> x_22 - x_26 <= -1
b851: z1_22_27 = 0 -> x_22 - x_27 <= -1
b852: z1_22_28 = 0 -> x_22 - x_28 <= -1
b853: z1_22_29 = 0 -> x_22 - x_29 <= -1
b854: z1_22_30 = 0 -> x_22 - x_30 <= -1
b855: z1_22_31 = 0 -> x_22 - x_31 <= -1
b856: z1_22_32 = 0 -> x_22 - x_32 <= -1
b857: z1_22_33 = 0 -> x_22 - x_33 <= -1
b858: z1_22_34 = 0 -> x_22 - x_34 <= -1
b859: z1_22_35 = 0 -> x_22 - x_35 <= -1
b860: z1_22_36 = 0 -> x_22 - x_36 <= -1
b861: z1_22_37 = 0 -> x_22 - x_37 <= -1
b862: z1_22_38 = 0 -> x_22 - x_38 <= -1
b863: z1_22_39 = 0 -> x_22 - x_39 <= -1
b864: z1_22_40 = 0 -> x_22 - x_40 <= -1
b865: z1_22_41 = 0 -> x_22 - x_41 <= -1
b866: z1_22_42 = 0 -> x_22 - x_42 <= -1
b867: z1_22_43 = 0 -> x_22 - x_43 <= -1
b868: z1_22_44 = 0 -> x_22 - x_44 <= -1
b869: z1_22_45 = 0 -> x_22 - x_45 <= -1
b870: z1_22_46 = 0 -> x_22 - x_46 <= -1
b871: z1_22_47 = 0 -> x_22 - x_47 <= -1
b872: z1_22_48 = 0 -> x_22 - x_48 <= -1
b873: z1_22_49 = 0 -> x_22 - x_49 <= -1
b874: z1_23_24 = 0 -> x_23 - x_24 <= -1
b875: z1_23_25 = 0 -> x_23 - x_25 <= -1
b876: z1_23_26 = 0 -> x_23 - x_26 <= -1
b877: z1_23_27 = 0 -> x_23 - x_27 <= -1
b878: z1_23_28 = 0 -> x_23 - x_28 <= -1
b879: z1_23_29 = 0 -> x_23 - x_29 <= -1
b880: z1_23_30 = 0 -> x_23 - x_30 <= -1
b881: z1_23_31 = 0 -> x_23 - x_31 <= -1
b882: z1_23_32 = 0 -> x_23 - x_32 <= -1
b883: z1_23_33 = 0 -> x_23 - x_33 <= -1
b884: z1_23_34 = 0 -> x_23 - x_34 <= -1
b885: z1_23_35 = 0 -> x_23 - x_35 <= -1
b886: z1_23_36 = 0 -> x_23 - x_36 <= -1
b887: z1_23_37 = 0 -> x_23 - x_37 <= -1
b888: z1_23_38 = 0 -> x_23 - x_38 <= -1
b889: z1_23_39 = 0 -> x_23 - x_39 <= -1
b890: z1_23_40 = 0 -> x_23 - x_40 <= -1
b891: z1_23_41 = 0 -> x_23 - x_41 <= -1
b892: z1_23_42 = 0 -> x_23 - x_42 <= -1
b893: z1_23_43 = 0 -> x_23 - x_43 <= -1
b894: z1_23_44 = 0 -> x_23 - x_44 <= -1
b895: z1_23_45 = 0 -> x_23 - x_45 <= -1
b896: z1_23_46 = 0 -> x_23 - x_46 <= -1
b897: z1_23_47 = 0 -> x_23 - x_47 <= -1
b898: z1_23_48 = 0 -> x_23 - x_48 <= -1
b899: z1_23_49 = 0 -> x_23 - x_49 <= -1
b900: z1_24_25 = 0 -> x_24 - x_25 <= -1
b901: z1_24_26 = 0 -> x_24 - x_26 <= -1
b902: z1_24_27 = 0 -> x_24 - x_27 <= -1
b903: z1_24_28 = 0 -> x_24 - x_28 <= -1
b904: z1_24_29 = 0 -> x_24 - x_29 <= -1
b905: z1_24_30 = 0 -> x_24 - x_30 <= -1
b906: z1_24_31 = 0 -> x_24 - x_31 <= -1
b907: z1_24_32 = 0 -> x_24 - x_32 <= -1
b908: z1_24_33 = 0 -> x_24 - x_33 <= -1
b909: z1_24_34 = 0 -> x_24 - x_34 <= -1
b910: z1_24_35 = 0 -> x_24 - x_35 <= -1
b911: z1_24_36 = 0 -> x_24 - x_36 <= -1
b912: z1_24_37 = 0 -> x_24 - x_37 <= -1
b913: z1_24_38 = 0 -> x_24 - x_38 <= -1
b914: z1_24_39 = 0 -> x_24 - x_39 <= -1
b915: z1_24_40 = 0 -> x_24 - x_40 <= -1
b916: z1_24_41 = 0 -> x_24 - x_41 <= -1
b917: z1_24_42 = 0 -> x_24 - x_42 <= -1
b918: z1_24_43 = 0 -> x_24 - x_43 <= -1
b919: z1_24_44 = 0 -> x_24 - x_44 <= -1
b920: z1_24_45 = 0 -> x_24 - x_45 <= -1
b921: z1_24_46 = 0 -> x_24 - x_46 <= -1
b922: z1_24_47 = 0 -> x_24 - x_47 <= -1
b923: z1_24_48 = 0 -> x_24 - x_48 <= -1
b924: z1_24_49 = 0 -> x_24 - x_49 <= -1
b925: z1_25_26 = 0 -> x_25 - x_26 <= -1
b926: z1_25_27 = 0 -> x_25 - x_27 <= -1
b927: z1_25_28 = 0 -> x_25 - x_28 <= -1
b928: z1_25_29 = 0 -> x_25 - x_29 <= -1
b929: z1_25_30 = 0 -> x_25 - x_30 <= -1
b930: z1_25_31 = 0 -> x_25 - x_31 <= -1
b931: z1_25_32 = 0 -> x_25 - x_32 <= -1
b932: z1_25_33 = 0 -> x_25 - x_33 <= -1
b933: z1_25_34 = 0 -> x_25 - x_34 <= -1
b934: z1_25_35 = 0 -> x_25 - x_35 <= -1
b935: z1_25_36 = 0 -> x_25 - x_36 <= -1
b936: z1_25_37 = 0 -> x_25 - x_37 <= -1
b937: z1_25_38 = 0 -> x_25 - x_38 <= -1
b938: z1_25_39 = 0 -> x_25 - x_39 <= -1
b939: z1_25_40 = 0 -> x_25 - x_40 <= -1
b940: z1_25_41 = 0 -> x_25 - x_41 <= -1
b941: z1_25_42 = 0 -> x_25 - x_42 <= -1
b942: z1_25_43 = 0 -> x_25 - x_43 <= -1
b943: z1_25_44 = 0 -> x_25 - x_44 <= -1
b944: z1_25_45 = 0 -> x_25 - x_45 <= -1
b945: z1_25_46 = 0 -> x_25 - x_46 <= -1
b946: z1_25_47 = 0 -> x_25 - x_47 <= -1
b947: z1_25_48 = 0 -> x_25 - x_48 <= -1
b948: z1_25_49 = 0 -> x_25 - x_49 <= -1
b949: z1_26_27 = 0 -> x_26 - x_27 <= -1
b950: z1_26_28 = 0 -> x_26 - x_28 <= -1
b951: z1_26_29 = 0 -> x_26 - x_29 <= -1
b952: z1_26_30 = 0 -> x_26 - x_30 <= -1
b953: z1_26_31 = 0 -> x_26 - x_31 <= -1
b954: z1_26_32 = 0 -> x_26 - x_32 <= -1
b955: z1_26_33 = 0 -> x_26 - x_33 <= -1
b956: z1_26_34 = 0 -> x_26 - x_34 <= -1
b957: z1_26_35 = 0 -> x_26 - x_35 <= -1
b958: z1_26_36 = 0 -> x_26 - x_36 <= -1
b959: z1_26_37 = 0 -> x_26 - x_37 <= -1
b960: z1_26_38 = 0 -> x_26 - x_38 <= -1
b961: z1_26_39 = 0 -> x_26 - x_39 <= -1
b962: z1_26_40 = 0 -> x_26 - x_40 <= -1
b963: z1_26_41 = 0 -> x_26 - x_41 <= -1
b964: z1_26_42 = 0 -> x_26 - x_42 <= -1
b965: z1_26_43 = 0 -> x_26 - x_43 <= -1
b966: z1_26_44 = 0 -> x_26 - x_44 <= -1
b967: z1_26_45 = 0 -> x_26 - x_45 <= -1
b968: z1_26_46 = 0 -> x_26 - x_46 <= -1
b969: z1_26_47 = 0 -> x_26 - x_47 <= -1
b970: z1_26_48 = 0 -> x_26 - x_48 <= -1
b971: z1_26_49 = 0 -> x_26 - x_49 <= -1
b972: z1_27_28 = 0 -> x_27 - x_28 <= -1
b973: z1_27_29 = 0 -> x_27 - x_29 <= -1
b974: z1_27_30 = 0 -> x_27 - x_30 <= -1
b975: z1_27_31 = 0 -> x_27 - x_31 <= -1
b976: z1_27_32 = 0 -> x_27 - x_32 <= -1
b977: z1_27_33 = 0 -> x_27 - x_33 <= -1
b978: z1_27_34 = 0 -> x_27 - x_34 <= -1
b979: z1_27_35 = 0 -> x_27 - x_35 <= -1
b980: z1_27_36 = 0 -> x_27 - x_36 <= -1
b981: z1_27_37 = 0 -> x_27 - x_37 <= -1
b982: z1_27_38 = 0 -> x_27 - x_38 <= -1
b983: z1_27_39 = 0 -> x_27 - x_39 <= -1
b984: z1_27_40 = 0 -> x_27 - x_40 <= -1
b985: z1_27_41 = 0 -> x_27 - x_41 <= -1
b986: z1_27_42 = 0 -> x_27 - x_42 <= -1
b987: z1_27_43 = 0 -> x_27 - x_43 <= -1
b988: z1_27_44 = 0 -> x_27 - x_44 <= -1
b989: z1_27_45 = 0 -> x_27 - x_45 <= -1
b990: z1_27_46 = 0 -> x_27 - x_46 <= -1
b991: z1_27_47 = 0 -> x_27 - x_47 <= -1
b992: z1_27_48 = 0 -> x_27 - x_48 <= -1
b993: z1_27_49 = 0 -> x_27 - x_49 <= -1
b994: z1_28_29 = 0 -> x_28 - x_29 <= -1
b995: z1_28_30 = 0 -> x_28 - x_30 <= -1
b996: z1_28_31 = 0 -> x_28 - x_31 <= -1
b997: z1_28_32 = 0 -> x_28 - x_32 <= -1
b998: z1_28_33 = 0 -> x_28 - x_33 <= -1
b999: z1_28_34 = 0 -> x_28 - x_34 <= -1
b1000: z1_28_35 = 0 -> x_28 - x_35 <= -1
b1001: z1_28_36 = 0 -> x_28 - x_36 <= -1
b1002: z1_28_37 = 0 -> x_28 - x_37 <= -1
b1003: z1_28_38 = 0 -> x_28 - x_38 <= -1
b1004: z1_28_39 = 0 -> x_28 - x_39 <= -1
b1005: z1_28_40 = 0 -> x_28 - x_40 <= -1
b1006: z1_28_41 = 0 -> x_28 - x_41 <= -1
b1007: z1_28_42 = 0 -> x_28 - x_42 <= -1
b1008: z1_28_43 = 0 -> x_28 - x_43 <= -1
b1009: z1_28_44 = 0 -> x_28 - x_44 <= -1
b1010: z1_28_45 = 0 -> x_28 - x_45 <= -1
b1011: z1_28_46 = 0 -> x_28 - x_46 <= -1
b1012: z1_28_47 = 0 -> x_28 - x_47 <= -1
b1013: z1_28_48 = 0 -> x_28 - x_48 <= -1
b1014: z1_28_49 = 0 -> x_28 - x_49 <= -1
b1015: z1_29_30 = 0 -> x_29 - x_30 <= -1
b1016: z1_29_31 = 0 -> x_29 - x_31 <= -1
b1017: z1_29_32 = 0 -> x_29 - x_32 <= -1
b1018: z1_29_33 = 0 -> x_29 - x_33 <= -1
b1019: z1_29_34 = 0 -> x_29 - x_34 <= -1
b1020: z1_29_35 = 0 -> x_29 - x_35 <= -1
b1021: z1_29_36 = 0 -> x_29 - x_36 <= -1
b1022: z1_29_37 = 0 -> x_29 - x_37 <= -1
b1023: z1_29_38 = 0 -> x_29 - x_38 <= -1
b1024: z1_29_39 = 0 -> x_29 - x_39 <= -1
b1025: z1_29_40 = 0 -> x_29 - x_40 <= -1
b1026: z1_29_41 = 0 -> x_29 - x_41 <= -1
b1027: z1_29_42 = 0 -> x_29 - x_42 <= -1
b1028: z1_29_43 = 0 -> x_29 - x_43 <= -1
b1029: z1_29_44 = 0 -> x_29 - x_44 <= -1
b1030: z1_29_45 = 0 -> x_29 - x_45 <= -1
b1031: z1_29_46 = 0 -> x_29 - x_46 <= -1
b1032: z1_29_47 = 0 -> x_29 - x_47 <= -1
b1033: z1_29_48 = 0 -> x_29 - x_48 <= -1
b1034: z1_29_49 = 0 -> x_29 - x_49 <= -1
b1035: z1_30_31 = 0 -> x_30 - x_31 <= -1
b1036: z1_30_32 = 0 -> x_30 - x_32 <= -1
b1037: z1_30_33 = 0 -> x_30 - x_33 <= -1
b1038: z1_30_34 = 0 -> x_30 - x_34 <= -1
b1039: z1_30_35 = 0 -> x_30 - x_35 <= -1
b1040: z1_30_36 = 0 -> x_30 - x_36 <= -1
b1041: z1_30_37 = 0 -> x_30 - x_37 <= -1
b1042: z1_30_38 = 0 -> x_30 - x_38 <= -1
b1043: z1_30_39 = 0 -> x_30 - x_39 <= -1
b1044: z1_30_40 = 0 -> x_30 - x_40 <= -1
b1045: z1_30_41 = 0 -> x_30 - x_41 <= -1
b1046: z1_30_42 = 0 -> x_30 - x_42 <= -1
b1047: z1_30_43 = 0 -> x_30 - x_43 <= -1
b1048: z1_30_44 = 0 -> x_30 - x_44 <= -1
b1049: z1_30_45 = 0 -> x_30 - x_45 <= -1
b1050: z1_30_46 = 0 -> x_30 - x_46 <= -1
b1051: z1_30_47 = 0 -> x_30 - x_47 <= -1
b1052: z1_30_48 = 0 -> x_30 - x_48 <= -1
b1053: z1_30_49 = 0 -> x_30 - x_49 <= -1
b1054: z1_31_32 = 0 -> x_31 - x_32 <= -1
b1055: z1_31_33 = 0 -> x_31 - x_33 <= -1
b1056: z1_31_34 = 0 -> x_31 - x_34 <= -1
b1057: z1_31_35 = 0 -> x_31 - x_35 <= -1
b1058: z1_31_36 = 0 -> x_31 - x_36 <= -1
b1059: z1_31_37 = 0 -> x_31 - x_37 <= -1
b1060: z1_31_38 = 0 -> x_31 - x_38 <= -1
b1061: z1_31_39 = 0 -> x_31 - x_39 <= -1
b1062: z1_31_40 = 0 -> x_31 - x_40 <= -1
b1063: z1_31_41 = 0 -> x_31 - x_41 <= -1
b1064: z1_31_42 = 0 -> x_31 - x_42 <= -1
b1065: z1_31_43 = 0 -> x_31 - x_43 <= -1
b1066: z1_31_44 = 0 -> x_31 - x_44 <= -1
b1067: z1_31_45 = 0 -> x_31 - x_45 <= -1
b1068: z1_31_46 = 0 -> x_31 - x_46 <= -1
b1069: z1_31_47 = 0 -> x_31 - x_47 <= -1
b1070: z1_31_48 = 0 -> x_31 - x_48 <= -1
b1071: z1_31_49 = 0 -> x_31 - x_49 <= -1
b1072: z1_32_33 = 0 -> x_32 - x_33 <= -1
b1073: z1_32_34 = 0 -> x_32 - x_34 <= -1
b1074: z1_32_35 = 0 -> x_32 - x_35 <= -1
b1075: z1_32_36 = 0 -> x_32 - x_36 <= -1
b1076: z1_32_37 = 0 -> x_32 - x_37 <= -1
b1077: z1_32_38 = 0 -> x_32 - x_38 <= -1
b1078: z1_32_39 = 0 -> x_32 - x_39 <= -1
b1079: z1_32_40 = 0 -> x_32 - x_40 <= -1
b1080: z1_32_41 = 0 -> x_32 - x_41 <= -1
b1081: z1_32_42 = 0 -> x_32 - x_42 <= -1
b1082: z1_32_43 = 0 -> x_32 - x_43 <= -1
b1083: z1_32_44 = 0 -> x_32 - x_44 <= -1
b1084: z1_32_45 = 0 -> x_32 - x_45 <= -1
b1085: z1_32_46 = 0 -> x_32 - x_46 <= -1
b1086: z1_32_47 = 0 -> x_32 - x_47 <= -1
b1087: z1_32_48 = 0 -> x_32 - x_48 <= -1
b1088: z1_32_49 = 0 -> x_32 - x_49 <= -1
b1089: z1_33_34 = 0 -> x_33 - x_34 <= -1
b1090: z1_33_35 = 0 -> x_33 - x_35 <= -1
b1091: z1_33_36 = 0 -> x_33 - x_36 <= -1
b1092: z1_33_37 = 0 -> x_33 - x_37 <= -1
b1093: z1_33_38 = 0 -> x_33 - x_38 <= -1
b1094: z1_33_39 = 0 -> x_33 - x_39 <= -1
b1095: z1_33_40 = 0 -> x_33 - x_40 <= -1
b1096: z1_33_41 = 0 -> x_33 - x_41 <= -1
b1097: z1_33_42 = 0 -> x_33 - x_42 <= -1
b1098: z1_33_43 = 0 -> x_33 - x_43 <= -1
b1099: z1_33_44 = 0 -> x_33 - x_44 <= -1
b1100: z1_33_45 = 0 -> x_33 - x_45 <= -1
b1101: z1_33_46 = 0 -> x_33 - x_46 <= -1
b1102: z1_33_47 = 0 -> x_33 - x_47 <= -1
b1103: z1_33_48 = 0 -> x_33 - x_48 <= -1
b1104: z1_33_49 = 0 -> x_33 - x_49 <= -1
b1105: z1_34_35 = 0 -> x_34 - x_35 <= -1
b1106: z1_34_36 = 0 -> x_34 - x_36 <= -1
b1107: z1_34_37 = 0 -> x_34 - x_37 <= -1
b1108: z1_34_38 = 0 -> x_34 - x_38 <= -1
b1109: z1_34_39 = 0 -> x_34 - x_39 <= -1
b1110: z1_34_40 = 0 -> x_34 - x_40 <= -1
b1111: z1_34_41 = 0 -> x_34 - x_41 <= -1
b1112: z1_34_42 = 0 -> x_34 - x_42 <= -1
b1113: z1_34_43 = 0 -> x_34 - x_43 <= -1
b1114: z1_34_44 = 0 -> x_34 - x_44 <= -1
b1115: z1_34_45 = 0 -> x_34 - x_45 <= -1
b1116: z1_34_46 = 0 -> x_34 - x_46 <= -1
b1117: z1_34_47 = 0 -> x_34 - x_47 <= -1
b1118: z1_34_48 = 0 -> x_34 - x_48 <= -1
b1119: z1_34_49 = 0 -> x_34 - x_49 <= -1
b1120: z1_35_36 = 0 -> x_35 - x_36 <= -1
b1121: z1_35_37 = 0 -> x_35 - x_37 <= -1
b1122: z1_35_38 = 0 -> x_35 - x_38 <= -1
b1123: z1_35_39 = 0 -> x_35 - x_39 <= -1
b1124: z1_35_40 = 0 -> x_35 - x_40 <= -1
b1125: z1_35_41 = 0 -> x_35 - x_41 <= -1
b1126: z1_35_42 = 0 -> x_35 - x_42 <= -1
b1127: z1_35_43 = 0 -> x_35 - x_43 <= -1
b1128: z1_35_44 = 0 -> x_35 - x_44 <= -1
b1129: z1_35_45 = 0 -> x_35 - x_45 <= -1
b1130: z1_35_46 = 0 -> x_35 - x_46 <= -1
b1131: z1_35_47 = 0 -> x_35 - x_47 <= -1
b1132: z1_35_48 = 0 -> x_35 - x_48 <= -1
b1133: z1_35_49 = 0 -> x_35 - x_49 <= -1
b1134: z1_36_37 = 0 -> x_36 - x_37 <= -1
b1135: z1_36_38 = 0 -> x_36 - x_38 <= -1
b1136: z1_36_39 = 0 -> x_36 - x_39 <= -1
b1137: z1_36_40 = 0 -> x_36 - x_40 <= -1
b1138: z1_36_41 = 0 -> x_36 - x_41 <= -1
b1139: z1_36_42 = 0 -> x_36 - x_42 <= -1
b1140: z1_36_43 = 0 -> x_36 - x_43 <= -1
b1141: z1_36_44 = 0 -> x_36 - x_44 <= -1
b1142: z1_36_45 = 0 -> x_36 - x_45 <= -1
b1143: z1_36_46 = 0 -> x_36 - x_46 <= -1
b1144: z1_36_47 = 0 -> x_36 - x_47 <= -1
b1145: z1_36_48 = 0 -> x_36 - x_48 <= -1
b1146: z1_36_49 = 0 -> x_36 - x_49 <= -1
b1147: z1_37_38 = 0 -> x_37 - x_38 <= -1
b1148: z1_37_39 = 0 -> x_37 - x_39 <= -1
b1149: z1_37_40 = 0 -> x_37 - x_40 <= -1
b1150: z1_37_41 = 0 -> x_37 - x_41 <= -1
b1151: z1_37_42 = 0 -> x_37 - x_42 <= -1
b1152: z1_37_43 = 0 -> x_37 - x_43 <= -1
b1153: z1_37_44 = 0 -> x_37 - x_44 <= -1
b1154: z1_37_45 = 0 -> x_37 - x_45 <= -1
b1155: z1_37_46 = 0 -> x_37 - x_46 <= -1
b1156: z1_37_47 = 0 -> x_37 - x_47 <= -1
b1157: z1_37_48 = 0 -> x_37 - x_48 <= -1
b1158: z1_37_49 = 0 -> x_37 - x_49 <= -1
b1159: z1_38_39 = 0 -> x_38 - x_39 <= -1
b1160: z1_38_40 = 0 -> x_38 - x_40 <= -1
b1161: z1_38_41 = 0 -> x_38 - x_41 <= -1
b1162: z1_38_42 = 0 -> x_38 - x_42 <= -1
b1163: z1_38_43 = 0 -> x_38 - x_43 <= -1
b1164: z1_38_44 = 0 -> x_38 - x_44 <= -1
b1165: z1_38_45 = 0 -> x_38 - x_45 <= -1
b1166: z1_38_46 = 0 -> x_38 - x_46 <= -1
b1167: z1_38_47 = 0 -> x_38 - x_47 <= -1
b1168: z1_38_48 = 0 -> x_38 - x_48 <= -1
b1169: z1_38_49 = 0 -> x_38 - x_49 <= -1
b1170: z1_39_40 = 0 -> x_39 - x_40 <= -1
b1171: z1_39_41 = 0 -> x_39 - x_41 <= -1
b1172: z1_39_42 = 0 -> x_39 - x_42 <= -1
b1173: z1_39_43 = 0 -> x_39 - x_43 <= -1
b1174: z1_39_44 = 0 -> x_39 - x_44 <= -1
b1175: z1_39_45 = 0 -> x_39 - x_45 <= -1
b1176: z1_39_46 = 0 -> x_39 - x_46 <= -1
b1177: z1_39_47 = 0 -> x_39 - x_47 <= -1
b1178: z1_39_48 = 0 -> x_39 - x_48 <= -1
b1179: z1_39_49 = 0 -> x_39 - x_49 <= -1
b1180: z1_40_41 = 0 -> x_40 - x_41 <= -1
b1181: z1_40_42 = 0 -> x_40 - x_42 <= -1
b1182: z1_40_43 = 0 -> x_40 - x_43 <= -1
b1183: z1_40_44 = 0 -> x_40 - x_44 <= -1
b1184: z1_40_45 = 0 -> x_40 - x_45 <= -1
b1185: z1_40_46 = 0 -> x_40 - x_46 <= -1
b1186: z1_40_47 = 0 -> x_40 - x_47 <= -1
b1187: z1_40_48 = 0 -> x_40 - x_48 <= -1
b1188: z1_40_49 = 0 -> x_40 - x_49 <= -1
b1189: z1_41_42 = 0 -> x_41 - x_42 <= -1
b1190: z1_41_43 = 0 -> x_41 - x_43 <= -1
b1191: z1_41_44 = 0 -> x_41 - x_44 <= -1
b1192: z1_41_45 = 0 -> x_41 - x_45 <= -1
b1193: z1_41_46 = 0 -> x_41 - x_46 <= -1
b1194: z1_41_47 = 0 -> x_41 - x_47 <= -1
b1195: z1_41_48 = 0 -> x_41 - x_48 <= -1
b1196: z1_41_49 = 0 -> x_41 - x_49 <= -1
b1197: z1_42_43 = 0 -> x_42 - x_43 <= -1
b1198: z1_42_44 = 0 -> x_42 - x_44 <= -1
b1199: z1_42_45 = 0 -> x_42 - x_45 <= -1
b1200: z1_42_46 = 0 -> x_42 - x_46 <= -1
b1201: z1_42_47 = 0 -> x_42 - x_47 <= -1
b1202: z1_42_48 = 0 -> x_42 - x_48 <= -1
b1203: z1_42_49 = 0 -> x_42 - x_49 <= -1
b1204: z1_43_44 = 0 -> x_43 - x_44 <= -1
b1205: z1_43_45 = 0 -> x_43 - x_45 <= -1
b1206: z1_43_46 = 0 -> x_43 - x_46 <= -1
b1207: z1_43_47 = 0 -> x_43 - x_47 <= -1
b1208: z1_43_48 = 0 -> x_43 - x_48 <= -1
b1209: z1_43_49 = 0 -> x_43 - x_49 <= -1
b1210: z1_44_45 = 0 -> x_44 - x_45 <= -1
b1211: z1_44_46 = 0 -> x_44 - x_46 <= -1
b1212: z1_44_47 = 0 -> x_44 - x_47 <= -1
b1213: z1_44_48 = 0 -> x_44 - x_48 <= -1
b1214: z1_44_49 = 0 -> x_44 - x_49 <= -1
b1215: z1_45_46 = 0 -> x_45 - x_46 <= -1
b1216: z1_45_47 = 0 -> x_45 - x_47 <= -1
b1217: z1_45_48 = 0 -> x_45 - x_48 <= -1
b1218: z1_45_49 = 0 -> x_45 - x_49 <= -1
b1219: z1_46_47 = 0 -> x_46 - x_47 <= -1
b1220: z1_46_48 = 0 -> x_46 - x_48 <= -1
b1221: z1_46_49 = 0 -> x_46 - x_49 <= -1
b1222: z1_47_48 = 0 -> x_47 - x_48 <= -1
b1223: z1_47_49 = 0 -> x_47 - x_49 <= -1
b1224: z1_48_49 = 0 -> x_48 - x_49 <= -1
c0: z2_0_1 = 1 -> x_0 - x_1 >= 2
c1: z2_0_2 = 1 -> x_0 - x_2 >= 3
c2: z2_0_3 = 1 -> x_0 - x_3 >= 4
c3: z2_0_4 = 1 -> x_0 - x_4 >= 5
c4: z2_0_5 = 1 -> x_0 - x_5 >= 6
c5: z2_0_6 = 1 -> x_0 - x_6 >= 7
c6: z2_0_7 = 1 -> x_0 - x_7 >= 8
c7: z2_0_8 = 1 -> x_0 - x_8 >= 9
c8: z2_0_9 = 1 -> x_0 - x_9 >= 10
c9: z2_0_10 = 1 -> x_0 - x_10 >= 11
c10: z2_0_11 = 1 -> x_0 - x_11 >= 12
c11: z2_0_12 = 1 -> x_0 - x_12 >= 13
c12: z2_0_13 = 1 -> x_0 - x_13 >= 14
c13: z2_0_14 = 1 -> x_0 - x_14 >= 15
c14: z2_0_15 = 1 -> x_0 - x_15 >= 16
c15: z2_0_16 = 1 -> x_0 - x_16 >= 17
c16: z2_0_17 = 1 -> x_0 - x_17 >= 18
c17: z2_0_18 = 1 -> x_0 - x_18 >= 19
c18: z2_0_19 = 1 -> x_0 - x_19 >= 20
c19: z2_0_20 = 1 -> x_0 - x_20 >= 21
c20: z2_0_21 = 1 -> x_0 - x_21 >= 22
c21: z2_0_22 = 1 -> x_0 - x_22 >= 23
c22: z2_0_23 = 1 -> x_0 - x_23 >= 24
c23: z2_0_24 = 1 -> x_0 - x_24 >= 25
c24: z2_0_25 = 1 -> x_0 - x_25 >= 26
c25: z2_0_26 = 1 -> x_0 - x_26 >= 27
c26: z2_0_27 = 1 -> x_0 - x_27 >= 28
c27: z2_0_28 = 1 -> x_0 - x_28 >= 29
c28: z2_0_29 = 1 -> x_0 - x_29 >= 30
c29: z2_0_30 = 1 -> x_0 - x_30 >= 31
c30: z2_0_31 = 1 -> x_0 - x_31 >= 32
c31: z2_0_32 = 1 -> x_0 - x_32 >= 33
c32: z2_0_33 = 1 -> x_0 - x_33 >= 34
c33: z2_0_34 = 1 -> x_0 - x_34 >= 35
c34: z2_0_35 = 1 -> x_0 - x_35 >= 36
c35: z2_0_36 = 1 -> x_0 - x_36 >= 37
c36: z2_0_37 = 1 -> x_0 - x_37 >= 38
c37: z2_0_38 = 1 -> x_0 - x_38 >= 39
c38: z2_0_39 = 1 -> x_0 - x_39 >= 40
c39: z2_0_40 = 1 -> x_0 - x_40 >= 41
c40: z2_0_41 = 1 -> x_0 - x_41 >= 42
c41: z2_0_42 = 1 -> x_0 - x_42 >= 43
c42: z2_0_43 = 1 -> x_0 - x_43 >= 44
c43: z2_0_44 = 1 -> x_0 - x_44 >= 45
c44: z2_0_45 = 1 -> x_0 - x_45 >= 46
c45: z2_0_46 = 1 -> x_0 - x_46 >= 47
c46: z2_0_47 = 1 -> x_0 - x_47 >= 48
c47: z2_0_48 = 1 -> x_0 - x_48 >= 49
c48: z2_0_49 = 1 -> x_0 - x_49 >= 50
c49: z2_1_2 = 1 -> x_1 - x_2 >= 2
c50: z2_1_3 = 1 -> x_1 - x_3 >= 3
c51: z2_1_4 = 1 -> x_1 - x_4 >= 4
c52: z2_1_5 = 1 -> x_1 - x_5 >= 5
c53: z2_1_6 = 1 -> x_1 - x_6 >= 6
c54: z2_1_7 = 1 -> x_1 - x_7 >= 7
c55: z2_1_8 = 1 -> x_1 - x_8 >= 8
c56: z2_1_9 = 1 -> x_1 - x_9 >= 9
c57: z2_1_10 = 1 -> x_1 - x_10 >= 10
c58: z2_1_11 = 1 -> x_1 - x_11 >= 11
c59: z2_1_12 = 1 -> x_1 - x_12 >= 12
c60: z2_1_13 = 1 -> x_1 - x_13 >= 13
c61: z2_1_14 = 1 -> x_1 - x_14 >= 14
c62: z2_1_15 = 1 -> x_1 - x_15 >= 15
c63: z2_1_16 = 1 -> x_1 - x_16 >= 16
c64: z2_1_17 = 1 -> x_1 - x_17 >= 17
c65: z2_1_18 = 1 -> x_1 - x_18 >= 18
c66: z2_1_19 = 1 -> x_1 - x_19 >= 19
c67: z2_1_20 = 1 -> x_1 - x_20 >= 20
c68: z2_1_21 = 1 -> x_1 - x_21 >= 21
c69: z2_1_22 = 1 -> x_1 - x_22 >= 22
c70: z2_1_23 = 1 -> x_1 - x_23 >= 23
c71: z2_1_24 = 1 -> x_1 - x_24 >= 24
c72: z2_1_25 = 1 -> x_1 - x_25 >= 25
c73: z2_1_26 = 1 -> x_1 - x_26 >= 26
c74: z2_1_27 = 1 -> x_1 - x_27 >= 27
c75: z2_1_28 = 1 -> x_1 - x_28 >= 28
c76: z2_1_29 = 1 -> x_1 - x_29 >= 29
c77: z2_1_30 = 1 -> x_1 - x_30 >= 30
c78: z2_1_31 = 1 -> x_1 - x_31 >= 31
c79: z2_1_32 = 1 -> x_1 - x_32 >= 32
c80: z2_1_33 = 1 -> x_1 - x_33 >= 33
c81: z2_1_34 = 1 -> x_1 - x_34 >= 34
c82: z2_1_35 = 1 -> x_1 - x_35 >= 35
c83: z2_1_36 = 1 -> x_1 - x_36 >= 36
c84: z2_1_37 = 1 -> x_1 - x_37 >= 37
c85: z2_1_38 = 1 -> x_1 - x_38 >= 38
c86: z2_1_39 = 1 -> x_1 - x_39 >= 39
c87: z2_1_40 = 1 -> x_1 - x_40 >= 40
c88: z2_1_41 = 1 -> x_1 - x_41 >= 41
c89: z2_1_42 = 1 -> x_1 - x_42 >= 42
c90: z2_1_43 = 1 -> x_1 - x_43 >= 43
c91: z2_1_44 = 1 -> x_1 - x_44 >= 44
c92: z2_1_45 = 1 -> x_1 - x_45 >= 45
c93: z2_1_46 = 1 -> x_1 - x_46 >= 46
c94: z2_1_47 = 1 -> x_1 - x_47 >= 47
c95: z2_1_48 = 1 -> x_1 - x_48 >= 48
c96: z2_1_49 = 1 -> x_1 - x_49 >= 49
c97: z2_2_3 = 1 -> x_2 - x_3 >= 2
c98: z2_2_4 = 1 -> x_2 - x_4 >= 3
c99: z2_2_5 = 1 -> x_2 - x_5 >= 4
c100: z2_2_6 = 1 -> x_2 - x_6 >= 5
c101: z2_2_7 = 1 -> x_2 - x_7 >= 6
c102: z2_2_8 = 1 -> x_2 - x_8 >= 7
c103: z2_2_9 = 1 -> x_2 - x_9 >= 8
c104: z2_2_10 = 1 -> x_2 - x_10 >= 9
c105: z2_2_11 = 1 -> x_2 - x_11 >= 10
c106: z2_2_12 = 1 -> x_2 - x_12 >= 11
c107: z2_2_13 = 1 -> x_2 - x_13 >= 12
c108: z2_2_14 = 1 -> x_2 - x_14 >= 13
c109: z2_2_15 = 1 -> x_2 - x_15 >= 14
c110: z2_2_16 = 1 -> x_2 - x_16 >= 15
c111: z2_2_17 = 1 -> x_2 - x_17 >= 16
c112: z2_2_18 = 1 -> x_2 - x_18 >= 17
c113: z2_2_19 = 1 -> x_2 - x_19 >= 18
c114: z2_2_20 = 1 -> x_2 - x_20 >= 19
c115: z2_2_21 = 1 -> x_2 - x_21 >= 20
c116: z2_2_22 = 1 -> x_2 - x_22 >= 21
c117: z2_2_23 = 1 -> x_2 - x_23 >= 22
c118: z2_2_24 = 1 -> x_2 - x_24 >= 23
c119: z2_2_25 = 1 -> x_2 - x_25 >= 24
c120: z2_2_26 = 1 -> x_2 - x_26 >= 25
c121: z2_2_27 = 1 -> x_2 - x_27 >= 26
c122: z2_2_28 = 1 -> x_2 - x_28 >= 27
c123: z2_2_29 = 1 -> x_2 - x_29 >= 28
c124: z2_2_30 = 1 -> x_2 - x_30 >= 29
c125: z2_2_31 = 1 -> x_2 - x_31 >= 30
c126: z2_2_32 = 1 -> x_2 - x_32 >= 31
c127: z2_2_33 = 1 -> x_2 - x_33 >= 32
c128: z2_2_34 = 1 -> x_2 - x_34 >= 33
c129: z2_2_35 = 1 -> x_2 - x_35 >= 34
c130: z2_2_36 = 1 -> x_2 - x_36 >= 35
c131: z2_2_37 = 1 -> x_2 - x_37 >= 36
c132: z2_2_38 = 1 -> x_2 - x_38 >= 37
c133: z2_2_39 = 1 -> x_2 - x_39 >= 38
c134: z2_2_40 = 1 -> x_2 - x_40 >= 39
c135: z2_2_41 = 1 -> x_2 - x_41 >= 40
c136: z2_2_42 = 1 -> x_2 - x_42 >= 41
c137: z2_2_43 = 1 -> x_2 - x_43 >= 42
c138: z2_2_44 = 1 -> x_2 - x_44 >= 43
c139: z2_2_45 = 1 -> x_2 - x_45 >= 44
c140: z2_2_46 = 1 -> x_2 - x_46 >= 45
c141: z2_2_47 = 1 -> x_2 - x_47 >= 46
c142: z2_2_48 = 1 -> x_2 - x_48 >= 47
c143: z2_2_49 = 1 -> x_2 - x_49 >= 48
c144: z2_3_4 = 1 -> x_3 - x_4 >= 2
c145: z2_3_5 = 1 -> x_3 - x_5 >= 3
c146: z2_3_6 = 1 -> x_3 - x_6 >= 4
c147: z2_3_7 = 1 -> x_3 - x_7 >= 5
c148: z2_3_8 = 1 -> x_3 - x_8 >= 6
c149: z2_3_9 = 1 -> x_3 - x_9 >= 7
c150: z2_3_10 = 1 -> x_3 - x_10 >= 8
c151: z2_3_11 = 1 -> x_3 - x_11 >= 9
c152: z2_3_12 = 1 -> x_3 - x_12 >= 10
c153: z2_3_13 = 1 -> x_3 - x_13 >= 11
c154: z2_3_14 = 1 -> x_3 - x_14 >= 12
c155: z2_3_15 = 1 -> x_3 - x_15 >= 13
c156: z2_3_16 = 1 -> x_3 - x_16 >= 14
c157: z2_3_17 = 1 -> x_3 - x_17 >= 15
c158: z2_3_18 = 1 -> x_3 - x_18 >= 16
c159: z2_3_19 = 1 -> x_3 - x_19 >= 17
c160: z2_3_20 = 1 -> x_3 - x_20 >= 18
c161: z2_3_21 = 1 -> x_3 - x_21 >= 19
c162: z2_3_22 = 1 -> x_3 - x_22 >= 20
c163: z2_3_23 = 1 -> x_3 - x_23 >= 21
c164: z2_3_24 = 1 -> x_3 - x_24 >= 22
c165: z2_3_25 = 1 -> x_3 - x_25 >= 23
c166: z2_3_26 = 1 -> x_3 - x_26 >= 24
c167: z2_3_27 = 1 -> x_3 - x_27 >= 25
c168: z2_3_28 = 1 -> x_3 - x_28 >= 26
c169: z2_3_29 = 1 -> x_3 - x_29 >= 27
c170: z2_3_30 = 1 -> x_3 - x_30 >= 28
c171: z2_3_31 = 1 -> x_3 - x_31 >= 29
c172: z2_3_32 = 1 -> x_3 - x_32 >= 30
c173: z2_3_33 = 1 -> x_3 - x_33 >= 31
c174: z2_3_34 = 1 -> x_3 - x_34 >= 32
c175: z2_3_35 = 1 -> x_3 - x_35 >= 33
c176: z2_3_36 = 1 -> x_3 - x_36 >= 34
c177: z2_3_37 = 1 -> x_3 - x_37 >= 35
c178: z2_3_38 = 1 -> x_3 - x_38 >= 36
c179: z2_3_39 = 1 -> x_3 - x_39 >= 37
c180: z2_3_40 = 1 -> x_3 - x_40 >= 38
c181: z2_3_41 = 1 -> x_3 - x_41 >= 39
c182: z2_3_42 = 1 -> x_3 - x_42 >= 40
c183: z2_3_43 = 1 -> x_3 - x_43 >= 41
c184: z2_3_44 = 1 -> x_3 - x_44 >= 42
c185: z2_3_45 = 1 -> x_3 - x_45 >= 43
c186: z2_3_46 = 1 -> x_3 - x_46 >= 44
c187: z2_3_47 = 1 -> x_3 - x_47 >= 45
c188: z2_3_48 = 1 -> x_3 - x_48 >= 46
c189: z2_3_49 = 1 -> x_3 - x_49 >= 47
c190: z2_4_5 = 1 -> x_4 - x_5 >= 2
c191: z2_4_6 = 1 -> x_4 - x_6 >= 3
c192: z2_4_7 = 1 -> x_4 - x_7 >= 4
c193: z2_4_8 = 1 -> x_4 - x_8 >= 5
c194: z2_4_9 = 1 -> x_4 - x_9 >= 6
c195: z2_4_10 = 1 -> x_4 - x_10 >= 7
c196: z2_4_11 = 1 -> x_4 - x_11 >= 8
c197: z2_4_12 = 1 -> x_4 - x_12 >= 9
c198: z2_4_13 = 1 -> x_4 - x_13 >= 10
c199: z2_4_14 = 1 -> x_4 - x_14 >= 11
c200: z2_4_15 = 1 -> x_4 - x_15 >= 12
c201: z2_4_16 = 1 -> x_4 - x_16 >= 13
c202: z2_4_17 = 1 -> x_4 - x_17 >= 14
c203: z2_4_18 = 1 -> x_4 - x_18 >= 15
c204: z2_4_19 = 1 -> x_4 - x_19 >= 16
c205: z2_4_20 = 1 -> x_4 - x_20 >= 17
c206: z2_4_21 = 1 -> x_4 - x_21 >= 18
c207: z2_4_22 = 1 -> x_4 - x_22 >= 19
c208: z2_4_23 = 1 -> x_4 - x_23 >= 20
c209: z2_4_24 = 1 -> x_4 - x_24 >= 21
c210: z2_4_25 = 1 -> x_4 - x_25 >= 22
c211: z2_4_26 = 1 -> x_4 - x_26 >= 23
c212: z2_4_27 = 1 -> x_4 - x_27 >= 24
c213: z2_4_28 = 1 -> x_4 - x_28 >= 25
c214: z2_4_29 = 1 -> x_4 - x_29 >= 26
c215: z2_4_30 = 1 -> x_4 - x_30 >= 27
c216: z2_4_31 = 1 -> x_4 - x_31 >= 28
c217: z2_4_32 = 1 -> x_4 - x_32 >= 29
c218: z2_4_33 = 1 -> x_4 - x_33 >= 30
c219: z2_4_34 = 1 -> x_4 - x_34 >= 31
c220: z2_4_35 = 1 -> x_4 - x_35 >= 32
c221: z2_4_36 = 1 -> x_4 - x_36 >= 33
c222: z2_4_37 = 1 -> x_4 - x_37 >= 34
c223: z2_4_38 = 1 -> x_4 - x_38 >= 35
c224: z2_4_39 = 1 -> x_4 - x_39 >= 36
c225: z2_4_40 = 1 -> x_4 - x_40 >= 37
c226: z2_4_41 = 1 -> x_4 - x_41 >= 38
c227: z2_4_42 = 1 -> x_4 - x_42 >= 39
c228: z2_4_43 = 1 -> x_4 - x_43 >= 40
c229: z2_4_44 = 1 -> x_4 - x_44 >= 41
c230: z2_4_45 = 1 -> x_4 - x_45 >= 42
c231: z2_4_46 = 1 -> x_4 - x_46 >= 43
c232: z2_4_47 = 1 -> x_4 - x_47 >= 44
c233: z2_4_48 = 1 -> x_4 - x_48 >= 45
c234: z2_4_49 = 1 -> x_4 - x_49 >= 46
c235: z2_5_6 = 1 -> x_5 - x_6 >= 2
c236: z2_5_7 = 1 -> x_5 - x_7 >= 3
c237: z2_5_8 = 1 -> x_5 - x_8 >= 4
c238: z2_5_9 = 1 -> x_5 - x_9 >= 5
c239: z2_5_10 = 1 -> x_5 - x_10 >= 6
c240: z2_5_11 = 1 -> x_5 - x_11 >= 7
c241: z2_5_12 = 1 -> x_5 - x_12 >= 8
c242: z2_5_13 = 1 -> x_5 - x_13 >= 9
c243: z2_5_14 = 1 -> x_5 - x_14 >= 10
c244: z2_5_15 = 1 -> x_5 - x_15 >= 11
c245: z2_5_16 = 1 -> x_5 - x_16 >= 12
c246: z2_5_17 = 1 -> x_5 - x_17 >= 13
c247: z2_5_18 = 1 -> x_5 - x_18 >= 14
c248: z2_5_19 = 1 -> x_5 - x_19 >= 15
c249: z2_5_20 = 1 -> x_5 - x_20 >= 16
c250: z2_5_21 = 1 -> x_5 - x_21 >= 17
c251: z2_5_22 = 1 -> x_5 - x_22 >= 18
c252: z2_5_23 = 1 -> x_5 - x_23 >= 19
c253: z2_5_24 = 1 -> x_5 - x_24 >= 20
c254: z2_5_25 = 1 -> x_5 - x_25 >= 21
c255: z2_5_26 = 1 -> x_5 - x_26 >= 22
c256: z2_5_27 = 1 -> x_5 - x_27 >= 23
c257: z2_5_28 = 1 -> x_5 - x_28 >= 24
c258: z2_5_29 = 1 -> x_5 - x_29 >= 25
c259: z2_5_30 = 1 -> x_5 - x_30 >= 26
c260: z2_5_31 = 1 -> x_5 - x_31 >= 27
c261: z2_5_32 = 1 -> x_5 - x_32 >= 28
c262: z2_5_33 = 1 -> x_5 - x_33 >= 29
c263: z2_5_34 = 1 -> x_5 - x_34 >= 30
c264: z2_5_35 = 1 -> x_5 - x_35 >= 31
c265: z2_5_36 = 1 -> x_5 - x_36 >= 32
c266: z2_5_37 = 1 -> x_5 - x_37 >= 33
c267: z2_5_38 = 1 -> x_5 - x_38 >= 34
c268: z2_5_39 = 1 -> x_5 - x_39 >= 35
c269: z2_5_40 = 1 -> x_5 - x_40 >= 36
c270: z2_5_41 = 1 -> x_5 - x_41 >= 37
c271: z2_5_42 = 1 -> x_5 - x_42 >= 38
c272: z2_5_43 = 1 -> x_5 - x_43 >= 39
c273: z2_5_44 = 1 -> x_5 - x_44 >= 40
c274: z2_5_45 = 1 -> x_5 - x_45 >= 41
c275: z2_5_46 = 1 -> x_5 - x_46 >= 42
c276: z2_5_47 = 1 -> x_5 - x_47 >= 43
c277: z2_5_48 = 1 -> x_5 - x_48 >= 44
c278: z2_5_49 = 1 -> x_5 - x_49 >= 45
c279: z2_6_7 = 1 -> x_6 - x_7 >= 2
c280: z2_6_8 = 1 -> x_6 - x_8 >= 3
c281: z2_6_9 = 1 -> x_6 - x_9 >= 4
c282: z2_6_10 = 1 -> x_6 - x_10 >= 5
c283: z2_6_11 = 1 -> x_6 - x_11 >= 6
c284: z2_6_12 = 1 -> x_6 - x_12 >= 7
c285: z2_6_13 = 1 -> x_6 - x_13 >= 8
c286: z2_6_14 = 1 -> x_6 - x_14 >= 9
c287: z2_6_15 = 1 -> x_6 - x_15 >= 10
c288: z2_6_16 = 1 -> x_6 - x_16 >= 11
c289: z2_6_17 = 1 -> x_6 - x_17 >= 12
c290: z2_6_18 = 1 -> x_6 - x_18 >= 13
c291: z2_6_19 = 1 -> x_6 - x_19 >= 14
c292: z2_6_20 = 1 -> x_6 - x_20 >= 15
c293: z2_6_21 = 1 -> x_6 - x_21 >= 16
c294: z2_6_22 = 1 -> x_6 - x_22 >= 17
c295: z2_6_23 = 1 -> x_6 - x_23 >= 18
c296: z2_6_24 = 1 -> x_6 - x_24 >= 19
c297: z2_6_25 = 1 -> x_6 - x_25 >= 20
c298: z2_6_26 = 1 -> x_6 - x_26 >= 21
c299: z2_6_27 = 1 -> x_6 - x_27 >= 22
c300: z2_6_28 = 1 -> x_6 - x_28 >= 23
c301: z2_6_29 = 1 -> x_6 - x_29 >= 24
c302: z2_6_30 = 1 -> x_6 - x_30 >= 25
c303: z2_6_31 = 1 -> x_6 - x_31 >= 26
c304: z2_6_32 = 1 -> x_6 - x_32 >= 27
c305: z2_6_33 = 1 -> x_6 - x_33 >= 28
c306: z2_6_34 = 1 -> x_6 - x_34 >= 29
c307: z2_6_35 = 1 -> x_6 - x_35 >= 30
c308: z2_6_36 = 1 -> x_6 - x_36 >= 31
c309: z2_6_37 = 1 -> x_6 - x_37 >= 32
c310: z2_6_38 = 1 -> x_6 - x_38 >= 33
c311: z2_6_39 = 1 -> x_6 - x_39 >= 34
c312: z2_6_40 = 1 -> x_6 - x_40 >= 35
c313: z2_6_41 = 1 -> x_6 - x_41 >= 36
c314: z2_6_42 = 1 -> x_6 - x_42 >= 37
c315: z2_6_43 = 1 -> x_6 - x_43 >= 38
c316: z2_6_44 = 1 -> x_6 - x_44 >= 39
c317: z2_6_45 = 1 -> x_6 - x_45 >= 40
c318: z2_6_46 = 1 -> x_6 - x_46 >= 41
c319: z2_6_47 = 1 -> x_6 - x_47 >= 42
c320: z2_6_48 = 1 -> x_6 - x_48 >= 43
c321: z2_6_49 = 1 -> x_6 - x_49 >= 44
c322: z2_7_8 = 1 -> x_7 - x_8 >= 2
c323: z2_7_9 = 1 -> x_7 - x_9 >= 3
c324: z2_7_10 = 1 -> x_7 - x_10 >= 4
c325: z2_7_11 = 1 -> x_7 - x_11 >= 5
c326: z2_7_12 = 1 -> x_7 - x_12 >= 6
c327: z2_7_13 = 1 -> x_7 - x_13 >= 7
c328: z2_7_14 = 1 -> x_7 - x_14 >= 8
c329: z2_7_15 = 1 -> x_7 - x_15 >= 9
c330: z2_7_16 = 1 -> x_7 - x_16 >= 10
c331: z2_7_17 = 1 -> x_7 - x_17 >= 11
c332: z2_7_18 = 1 -> x_7 - x_18 >= 12
c333: z2_7_19 = 1 -> x_7 - x_19 >= 13
c334: z2_7_20 = 1 -> x_7 - x_20 >= 14
c335: z2_7_21 = 1 -> x_7 - x_21 >= 15
c336: z2_7_22 = 1 -> x_7 - x_22 >= 16
c337: z2_7_23 = 1 -> x_7 - x_23 >= 17
c338: z2_7_24 = 1 -> x_7 - x_24 >= 18
c339: z2_7_25 = 1 -> x_7 - x_25 >= 19
c340: z2_7_26 = 1 -> x_7 - x_26 >= 20
c341: z2_7_27 = 1 -> x_7 - x_27 >= 21
c342: z2_7_28 = 1 -> x_7 - x_28 >= 22
c343: z2_7_29 = 1 -> x_7 - x_29 >= 23
c344: z2_7_30 = 1 -> x_7 - x_30 >= 24
c345: z2_7_31 = 1 -> x_7 - x_31 >= 25
c346: z2_7_32 = 1 -> x_7 - x_32 >= 26
c347: z2_7_33 = 1 -> x_7 - x_33 >= 27
c348: z2_7_34 = 1 -> x_7 - x_34 >= 28
c349: z2_7_35 = 1 -> x_7 - x_35 >= 29
c350: z2_7_36 = 1 -> x_7 - x_36 >= 30
c351: z2_7_37 = 1 -> x_7 - x_37 >= 31
c352: z2_7_38 = 1 -> x_7 - x_38 >= 32
c353: z2_7_39 = 1 -> x_7 - x_39 >= 33
c354: z2_7_40 = 1 -> x_7 - x_40 >= 34
c355: z2_7_41 = 1 -> x_7 - x_41 >= 35
c356: z2_7_42 = 1 -> x_7 - x_42 >= 36
c357: z2_7_43 = 1 -> x_7 - x_43 >= 37
c358: z2_7_44 = 1 -> x_7 - x_44 >= 38
c359: z2_7_45 = 1 -> x_7 - x_45 >= 39
c360: z2_7_46 = 1 -> x_7 - x_46 >= 40
c361: z2_7_47 = 1 -> x_7 - x_47 >= 41
c362: z2_7_48 = 1 -> x_7 - x_48 >= 42
c363: z2_7_49 = 1 -> x_7 - x_49 >= 43
c364: z2_8_9 = 1 -> x_8 - x_9 >= 2
c365: z2_8_10 = 1 -> x_8 - x_10 >= 3
c366: z2_8_11 = 1 -> x_8 - x_11 >= 4
c367: z2_8_12 = 1 -> x_8 - x_12 >= 5
c368: z2_8_13 = 1 -> x_8 - x_13 >= 6
c369: z2_8_14 = 1 -> x_8 - x_14 >= 7
c370: z2_8_15 = 1 -> x_8 - x_15 >= 8
c371: z2_8_16 = 1 -> x_8 - x_16 >= 9
c372: z2_8_17 = 1 -> x_8 - x_17 >= 10
c373: z2_8_18 = 1 -> x_8 - x_18 >= 11
c374: z2_8_19 = 1 -> x_8 - x_19 >= 12
c375: z2_8_20 = 1 -> x_8 - x_20 >= 13
c376: z2_8_21 = 1 -> x_8 - x_21 >= 14
c377: z2_8_22 = 1 -> x_8 - x_22 >= 15
c378: z2_8_23 = 1 -> x_8 - x_23 >= 16
c379: z2_8_24 = 1 -> x_8 - x_24 >= 17
c380: z2_8_25 = 1 -> x_8 - x_25 >= 18
c381: z2_8_26 = 1 -> x_8 - x_26 >= 19
c382: z2_8_27 = 1 -> x_8 - x_27 >= 20
c383: z2_8_28 = 1 -> x_8 - x_28 >= 21
c384: z2_8_29 = 1 -> x_8 - x_29 >= 22
c385: z2_8_30 = 1 -> x_8 - x_30 >= 23
c386: z2_8_31 = 1 -> x_8 - x_31 >= 24
c387: z2_8_32 = 1 -> x_8 - x_32 >= 25
c388: z2_8_33 = 1 -> x_8 - x_33 >= 26
c389: z2_8_34 = 1 -> x_8 - x_34 >= 27
c390: z2_8_35 = 1 -> x_8 - x_35 >= 28
c391: z2_8_36 = 1 -> x_8 - x_36 >= 29
c392: z2_8_37 = 1 -> x_8 - x_37 >= 30
c393: z2_8_38 = 1 -> x_8 - x_38 >= 31
c394: z2_8_39 = 1 -> x_8 - x_39 >= 32
c395: z2_8_40 = 1 -> x_8 - x_40 >= 33
c396: z2_8_41 = 1 -> x_8 - x_41 >= 34
c397: z2_8_42 = 1 -> x_8 - x_42 >= 35
c398: z2_8_43 = 1 -> x_8 - x_43 >= 36
c399: z2_8_44 = 1 -> x_8 - x_44 >= 37
c400: z2_8_45 = 1 -> x_8 - x_45 >= 38
c401: z2_8_46 = 1 -> x_8 - x_46 >= 39
c402: z2_8_47 = 1 -> x_8 - x_47 >= 40
c403: z2_8_48 = 1 -> x_8 - x_48 >= 41
c404: z2_8_49 = 1 -> x_8 - x_49 >= 42
c405: z2_9_10 = 1 -> x_9 - x_10 >= 2
c406: z2_9_11 = 1 -> x_9 - x_11 >= 3
c407: z2_9_12 = 1 -> x_9 - x_12 >= 4
c408: z2_9_13 = 1 -> x_9 - x_13 >= 5
c409: z2_9_14 = 1 -> x_9 - x_14 >= 6
c410: z2_9_15 = 1 -> x_9 - x_15 >= 7
c411: z2_9_16 = 1 -> x_9 - x_16 >= 8
c412: z2_9_17 = 1 -> x_9 - x_17 >= 9
c413: z2_9_18 = 1 -> x_9 - x_18 >= 10
c414: z2_9_19 = 1 -> x_9 - x_19 >= 11
c415: z2_9_20 = 1 -> x_9 - x_20 >= 12
c416: z2_9_21 = 1 -> x_9 - x_21 >= 13
c417: z2_9_22 = 1 -> x_9 - x_22 >= 14
c418: z2_9_23 = 1 -> x_9 - x_23 >= 15
c419: z2_9_24 = 1 -> x_9 - x_24 >= 16
c420: z2_9_25 = 1 -> x_9 - x_25 >= 17
c421: z2_9_26 = 1 -> x_9 - x_26 >= 18
c422: z2_9_27 = 1 -> x_9 - x_27 >= 19
c423: z2_9_28 = 1 -> x_9 - x_28 >= 20
c424: z2_9_29 = 1 -> x_9 - x_29 >= 21
c425: z2_9_30 = 1 -> x_9 - x_30 >= 22
c426: z2_9_31 = 1 -> x_9 - x_31 >= 23
c427: z2_9_32 = 1 -> x_9 - x_32 >= 24
c428: z2_9_33 = 1 -> x_9 - x_33 >= 25
c429: z2_9_34 = 1 -> x_9 - x_34 >= 26
c430: z2_9_35 = 1 -> x_9 - x_35 >= 27
c431: z2_9_36 = 1 -> x_9 - x_36 >= 28
c432: z2_9_37 = 1 -> x_9 - x_37 >= 29
c433: z2_9_38 = 1 -> x_9 - x_38 >= 30
c434: z2_9_39 = 1 -> x_9 - x_39 >= 31
c435: z2_9_40 = 1 -> x_9 - x_40 >= 32
c436: z2_9_41 = 1 -> x_9 - x_41 >= 33
c437: z2_9_42 = 1 -> x_9 - x_42 >= 34
c438: z2_9_43 = 1 -> x_9 - x_43 >= 35
c439: z2_9_44 = 1 -> x_9 - x_44 >= 36
c440: z2_9_45 = 1 -> x_9 - x_45 >= 37
c441: z2_9_46 = 1 -> x_9 - x_46 >= 38
c442: z2_9_47 = 1 -> x_9 - x_47 >= 39
c443: z2_9_48 = 1 -> x_9 - x_48 >= 40
c444: z2_9_49 = 1 -> x_9 - x_49 >= 41
c445: z2_10_11 = 1 -> x_10 - x_11 >= 2
c446: z2_10_12 = 1 -> x_10 - x_12 >= 3
c447: z2_10_13 = 1 -> x_10 - x_13 >= 4
c448: z2_10_14 = 1 -> x_10 - x_14 >= 5
c449: z2_10_15 = 1 -> x_10 - x_15 >= 6
c450: z2_10_16 = 1 -> x_10 - x_16 >= 7
c451: z2_10_17 = 1 -> x_10 - x_17 >= 8
c452: z2_10_18 = 1 -> x_10 - x_18 >= 9
c453: z2_10_19 = 1 -> x_10 - x_19 >= 10
c454: z2_10_20 = 1 -> x_10 - x_20 >= 11
c455: z2_10_21 = 1 -> x_10 - x_21 >= 12
c456: z2_10_22 = 1 -> x_10 - x_22 >= 13
c457: z2_10_23 = 1 -> x_10 - x_23 >= 14
c458: z2_10_24 = 1 -> x_10 - x_24 >= 15
c459: z2_10_25 = 1 -> x_10 - x_25 >= 16
c460: z2_10_26 = 1 -> x_10 - x_26 >= 17
c461: z2_10_27 = 1 -> x_10 - x_27 >= 18
c462: z2_10_28 = 1 -> x_10 - x_28 >= 19
c463: z2_10_29 = 1 -> x_10 - x_29 >= 20
c464: z2_10_30 = 1 -> x_10 - x_30 >= 21
c465: z2_10_31 = 1 -> x_10 - x_31 >= 22
c466: z2_10_32 = 1 -> x_10 - x_32 >= 23
c467: z2_10_33 = 1 -> x_10 - x_33 >= 24
c468: z2_10_34 = 1 -> x_10 - x_34 >= 25
c469: z2_10_35 = 1 -> x_10 - x_35 >= 26
c470: z2_10_36 = 1 -> x_10 - x_36 >= 27
c471: z2_10_37 = 1 -> x_10 - x_37 >= 28
c472: z2_10_38 = 1 -> x_10 - x_38 >= 29
c473: z2_10_39 = 1 -> x_10 - x_39 >= 30
c474: z2_10_40 = 1 -> x_10 - x_40 >= 31
c475: z2_10_41 = 1 -> x_10 - x_41 >= 32
c476: z2_10_42 = 1 -> x_10 - x_42 >= 33
c477: z2_10_43 = 1 -> x_10 - x_43 >= 34
c478: z2_10_44 = 1 -> x_10 - x_44 >= 35
c479: z2_10_45 = 1 -> x_10 - x_45 >= 36
c480: z2_10_46 = 1 -> x_10 - x_46 >= 37
c481: z2_10_47 = 1 -> x_10 - x_47 >= 38
c482: z2_10_48 = 1 -> x_10 - x_48 >= 39
c483: z2_10_49 = 1 -> x_10 - x_49 >= 40
c484: z2_11_12 = 1 -> x_11 - x_12 >= 2
c485: z2_11_13 = 1 -> x_11 - x_13 >= 3
c486: z2_11_14 = 1 -> x_11 - x_14 >= 4
c487: z2_11_15 = 1 -> x_11 - x_15 >= 5
c488: z2_11_16 = 1 -> x_11 - x_16 >= 6
c489: z2_11_17 = 1 -> x_11 - x_17 >= 7
c490: z2_11_18 = 1 -> x_11 - x_18 >= 8
c491: z2_11_19 = 1 -> x_11 - x_19 >= 9
c492: z2_11_20 = 1 -> x_11 - x_20 >= 10
c493: z2_11_21 = 1 -> x_11 - x_21 >= 11
c494: z2_11_22 = 1 -> x_11 - x_22 >= 12
c495: z2_11_23 = 1 -> x_11 - x_23 >= 13
c496: z2_11_24 = 1 -> x_11 - x_24 >= 14
c497: z2_11_25 = 1 -> x_11 - x_25 >= 15
c498: z2_11_26 = 1 -> x_11 - x_26 >= 16
c499: z2_11_27 = 1 -> x_11 - x_27 >= 17
c500: z2_11_28 = 1 -> x_11 - x_28 >= 18
c501: z2_11_29 = 1 -> x_11 - x_29 >= 19
c502: z2_11_30 = 1 -> x_11 - x_30 >= 20
c503: z2_11_31 = 1 -> x_11 - x_31 >= 21
c504: z2_11_32 = 1 -> x_11 - x_32 >= 22
c505: z2_11_33 = 1 -> x_11 - x_33 >= 23
c506: z2_11_34 = 1 -> x_11 - x_34 >= 24
c507: z2_11_35 = 1 -> x_11 - x_35 >= 25
c508: z2_11_36 = 1 -> x_11 - x_36 >= 26
c509: z2_11_37 = 1 -> x_11 - x_37 >= 27
c510: z2_11_38 = 1 -> x_11 - x_38 >= 28
c511: z2_11_39 = 1 -> x_11 - x_39 >= 29
c512: z2_11_40 = 1 -> x_11 - x_40 >= 30
c513: z2_11_41 = 1 -> x_11 - x_41 >= 31
c514: z2_11_42 = 1 -> x_11 - x_42 >= 32
c515: z2_11_43 = 1 -> x_11 - x_43 >= 33
c516: z2_11_44 = 1 -> x_11 - x_44 >= 34
c517: z2_11_45 = 1 -> x_11 - x_45 >= 35
c518: z2_11_46 = 1 -> x_11 - x_46 >= 36
c519: z2_11_47 = 1 -> x_11 - x_47 >= 37
c520: z2_11_48 = 1 -> x_11 - x_48 >= 38
c521: z2_11_49 = 1 -> x_11 - x_49 >= 39
c522: z2_12_13 = 1 -> x_12 - x_13 >= 2
c523: z2_12_14 = 1 -> x_12 - x_14 >= 3
c524: z2_12_15 = 1 -> x_12 - x_15 >= 4
c525: z2_12_16 = 1 -> x_12 - x_16 >= 5
c526: z2_12_17 = 1 -> x_12 - x_17 >= 6
c527: z2_12_18 = 1 -> x_12 - x_18 >= 7
c528: z2_12_19 = 1 -> x_12 - x_19 >= 8
c529: z2_12_20 = 1 -> x_12 - x_20 >= 9
c530: z2_12_21 = 1 -> x_12 - x_21 >= 10
c531: z2_12_22 = 1 -> x_12 - x_22 >= 11
c532: z2_12_23 = 1 -> x_12 - x_23 >= 12
c533: z2_12_24 = 1 -> x_12 - x_24 >= 13
c534: z2_12_25 = 1 -> x_12 - x_25 >= 14
c535: z2_12_26 = 1 -> x_12 - x_26 >= 15
c536: z2_12_27 = 1 -> x_12 - x_27 >= 16
c537: z2_12_28 = 1 -> x_12 - x_28 >= 17
c538: z2_12_29 = 1 -> x_12 - x_29 >= 18
c539: z2_12_30 = 1 -> x_12 - x_30 >= 19
c540: z2_12_31 = 1 -> x_12 - x_31 >= 20
c541: z2_12_32 = 1 -> x_12 - x_32 >= 21
c542: z2_12_33 = 1 -> x_12 - x_33 >= 22
c543: z2_12_34 = 1 -> x_12 - x_34 >= 23
c544: z2_12_35 = 1 -> x_12 - x_35 >= 24
c545: z2_12_36 = 1 -> x_12 - x_36 >= 25
c546: z2_12_37 = 1 -> x_12 - x_37 >= 26
c547: z2_12_38 = 1 -> x_12 - x_38 >= 27
c548: z2_12_39 = 1 -> x_12 - x_39 >= 28
c549: z2_12_40 = 1 -> x_12 - x_40 >= 29
c550: z2_12_41 = 1 -> x_12 - x_41 >= 30
c551: z2_12_42 = 1 -> x_12 - x_42 >= 31
c552: z2_12_43 = 1 -> x_12 - x_43 >= 32
c553: z2_12_44 = 1 -> x_12 - x_44 >= 33
c554: z2_12_45 = 1 -> x_12 - x_45 >= 34
c555: z2_12_46 = 1 -> x_12 - x_46 >= 35
c556: z2_12_47 = 1 -> x_12 - x_47 >= 36
c557: z2_12_48 = 1 -> x_12 - x_48 >= 37
c558: z2_12_49 = 1 -> x_12 - x_49 >= 38
c559: z2_13_14 = 1 -> x_13 - x_14 >= 2
c560: z2_13_15 = 1 -> x_13 - x_15 >= 3
c561: z2_13_16 = 1 -> x_13 - x_16 >= 4
c562: z2_13_17 = 1 -> x_13 - x_17 >= 5
c563: z2_13_18 = 1 -> x_13 - x_18 >= 6
c564: z2_13_19 = 1 -> x_13 - x_19 >= 7
c565: z2_13_20 = 1 -> x_13 - x_20 >= 8
c566: z2_13_21 = 1 -> x_13 - x_21 >= 9
c567: z2_13_22 = 1 -> x_13 - x_22 >= 10
c568: z2_13_23 = 1 -> x_13 - x_23 >= 11
c569: z2_13_24 = 1 -> x_13 - x_24 >= 12
c570: z2_13_25 = 1 -> x_13 - x_25 >= 13
c571: z2_13_26 = 1 -> x_13 - x_26 >= 14
c572: z2_13_27 = 1 -> x_13 - x_27 >= 15
c573: z2_13_28 = 1 -> x_13 - x_28 >= 16
c574: z2_13_29 = 1 -> x_13 - x_29 >= 17
c575: z2_13_30 = 1 -> x_13 - x_30 >= 18
c576: z2_13_31 = 1 -> x_13 - x_31 >= 19
c577: z2_13_32 = 1 -> x_13 - x_32 >= 20
c578: z2_13_33 = 1 -> x_13 - x_33 >= 21
c579: z2_13_34 = 1 -> x_13 - x_34 >= 22
c580: z2_13_35 = 1 -> x_13 - x_35 >= 23
c581: z2_13_36 = 1 -> x_13 - x_36 >= 24
c582: z2_13_37 = 1 -> x_13 - x_37 >= 25
c583: z2_13_38 = 1 -> x_13 - x_38 >= 26
c584: z2_13_39 = 1 -> x_13 - x_39 >= 27
c585: z2_13_40 = 1 -> x_13 - x_40 >= 28
c586: z2_13_41 = 1 -> x_13 - x_41 >= 29
c587: z2_13_42 = 1 -> x_13 - x_42 >= 30
c588: z2_13_43 = 1 -> x_13 - x_43 >= 31
c589: z2_13_44 = 1 -> x_13 - x_44 >= 32
c590: z2_13_45 = 1 -> x_13 - x_45 >= 33
c591: z2_13_46 = 1 -> x_13 - x_46 >= 34
c592: z2_13_47 = 1 -> x_13 - x_47 >= 35
c593: z2_13_48 = 1 -> x_13 - x_48 >= 36
c594: z2_13_49 = 1 -> x_13 - x_49 >= 37
c595: z2_14_15 = 1 -> x_14 - x_15 >= 2
c596: z2_14_16 = 1 -> x_14 - x_16 >= 3
c597: z2_14_17 = 1 -> x_14 - x_17 >= 4
c598: z2_14_18 = 1 -> x_14 - x_18 >= 5
c599: z2_14_19 = 1 -> x_14 - x_19 >= 6
c600: z2_14_20 = 1 -> x_14 - x_20 >= 7
c601: z2_14_21 = 1 -> x_14 - x_21 >= 8
c602: z2_14_22 = 1 -> x_14 - x_22 >= 9
c603: z2_14_23 = 1 -> x_14 - x_23 >= 10
c604: z2_14_24 = 1 -> x_14 - x_24 >= 11
c605: z2_14_25 = 1 -> x_14 - x_25 >= 12
c606: z2_14_26 = 1 -> x_14 - x_26 >= 13
c607: z2_14_27 = 1 -> x_14 - x_27 >= 14
c608: z2_14_28 = 1 -> x_14 - x_28 >= 15
c609: z2_14_29 = 1 -> x_14 - x_29 >= 16
c610: z2_14_30 = 1 -> x_14 - x_30 >= 17
c611: z2_14_31 = 1 -> x_14 - x_31 >= 18
c612: z2_14_32 = 1 -> x_14 - x_32 >= 19
c613: z2_14_33 = 1 -> x_14 - x_33 >= 20
c614: z2_14_34 = 1 -> x_14 - x_34 >= 21
c615: z2_14_35 = 1 -> x_14 - x_35 >= 22
c616: z2_14_36 = 1 -> x_14 - x_36 >= 23
c617: z2_14_37 = 1 -> x_14 - x_37 >= 24
c618: z2_14_38 = 1 -> x_14 - x_38 >= 25
c619: z2_14_39 = 1 -> x_14 - x_39 >= 26
c620: z2_14_40 = 1 -> x_14 - x_40 >= 27
c621: z2_14_41 = 1 -> x_14 - x_41 >= 28
c622: z2_14_42 = 1 -> x_14 - x_42 >= 29
c623: z2_14_43 = 1 -> x_14 - x_43 >= 30
c624: z2_14_44 = 1 -> x_14 - x_44 >= 31
c625: z2_14_45 = 1 -> x_14 - x_45 >= 32
c626: z2_14_46 = 1 -> x_14 - x_46 >= 33
c627: z2_14_47 = 1 -> x_14 - x_47 >= 34
c628: z2_14_48 = 1 -> x_14 - x_48 >= 35
c629: z2_14_49 = 1 -> x_14 - x_49 >= 36
c630: z2_15_16 = 1 -> x_15 - x_16 >= 2
c631: z2_15_17 = 1 -> x_15 - x_17 >= 3
c632: z2_15_18 = 1 -> x_15 - x_18 >= 4
c633: z2_15_19 = 1 -> x_15 - x_19 >= 5
c634: z2_15_20 = 1 -> x_15 - x_20 >= 6
c635: z2_15_21 = 1 -> x_15 - x_21 >= 7
c636: z2_15_22 = 1 -> x_15 - x_22 >= 8
c637: z2_15_23 = 1 -> x_15 - x_23 >= 9
c638: z2_15_24 = 1 -> x_15 - x_24 >= 10
c639: z2_15_25 = 1 -> x_15 - x_25 >= 11
c640: z2_15_26 = 1 -> x_15 - x_26 >= 12
c641: z2_15_27 = 1 -> x_15 - x_27 >= 13
c642: z2_15_28 = 1 -> x_15 - x_28 >= 14
c643: z2_15_29 = 1 -> x_15 - x_29 >= 15
c644: z2_15_30 = 1 -> x_15 - x_30 >= 16
c645: z2_15_31 = 1 -> x_15 - x_31 >= 17
c646: z2_15_32 = 1 -> x_15 - x_32 >= 18
c647: z2_15_33 = 1 -> x_15 - x_33 >= 19
c648: z2_15_34 = 1 -> x_15 - x_34 >= 20
c649: z2_15_35 = 1 -> x_15 - x_35 >= 21
c650: z2_15_36 = 1 -> x_15 - x_36 >= 22
c651: z2_15_37 = 1 -> x_15 - x_37 >= 23
c652: z2_15_38 = 1 -> x_15 - x_38 >= 24
c653: z2_15_39 = 1 -> x_15 - x_39 >= 25
c654: z2_15_40 = 1 -> x_15 - x_40 >= 26
c655: z2_15_41 = 1 -> x_15 - x_41 >= 27
c656: z2_15_42 = 1 -> x_15 - x_42 >= 28
c657: z2_15_43 = 1 -> x_15 - x_43 >= 29
c658: z2_15_44 = 1 -> x_15 - x_44 >= 30
c659: z2_15_45 = 1 -> x_15 - x_45 >= 31
c660: z2_15_46 = 1 -> x_15 - x_46 >= 32
c661: z2_15_47 = 1 -> x_15 - x_47 >= 33
c662: z2_15_48 = 1 -> x_15 - x_48 >= 34
c663: z2_15_49 = 1 -> x_15 - x_49 >= 35
c664: z2_16_17 = 1 -> x_16 - x_17 >= 2
c665: z2_16_18 = 1 -> x_16 - x_18 >= 3
c666: z2_16_19 = 1 -> x_16 - x_19 >= 4
c667: z2_16_20 = 1 -> x_16 - x_20 >= 5
c668: z2_16_21 = 1 -> x_16 - x_21 >= 6
c669: z2_16_22 = 1 -> x_16 - x_22 >= 7
c670: z2_16_23 = 1 -> x_16 - x_23 >= 8
c671: z2_16_24 = 1 -> x_16 - x_24 >= 9
c672: z2_16_25 = 1 -> x_16 - x_25 >= 10
c673: z2_16_26 = 1 -> x_16 - x_26 >= 11
c674: z2_16_27 = 1 -> x_16 - x_27 >= 12
c675: z2_16_28 = 1 -> x_16 - x_28 >= 13
c676: z2_16_29 = 1 -> x_16 - x_29 >= 14
c677: z2_16_30 = 1 -> x_16 - x_30 >= 15
c678: z2_16_31 = 1 -> x_16 - x_31 >= 16
c679: z2_16_32 = 1 -> x_16 - x_32 >= 17
c680: z2_16_33 = 1 -> x_16 - x_33 >= 18
c681: z2_16_34 = 1 -> x_16 - x_34 >= 19
c682: z2_16_35 = 1 -> x_16 - x_35 >= 20
c683: z2_16_36 = 1 -> x_16 - x_36 >= 21
c684: z2_16_37 = 1 -> x_16 - x_37 >= 22
c685: z2_16_38 = 1 -> x_16 - x_38 >= 23
c686: z2_16_39 = 1 -> x_16 - x_39 >= 24
c687: z2_16_40 = 1 -> x_16 - x_40 >= 25
c688: z2_16_41 = 1 -> x_16 - x_41 >= 26
c689: z2_16_42 = 1 -> x_16 - x_42 >= 27
c690: z2_16_43 = 1 -> x_16 - x_43 >= 28
c691: z2_16_44 = 1 -> x_16 - x_44 >= 29
c692: z2_16_45 = 1 -> x_16 - x_45 >= 30
c693: z2_16_46 = 1 -> x_16 - x_46 >= 31
c694: z2_16_47 = 1 -> x_16 - x_47 >= 32
c695: z2_16_48 = 1 -> x_16 - x_48 >= 33
c696: z2_16_49 = 1 -> x_16 - x_49 >= 34
c697: z2_17_18 = 1 -> x_17 - x_18 >= 2
c698: z2_17_19 = 1 -> x_17 - x_19 >= 3
c699: z2_17_20 = 1 -> x_17 - x_20 >= 4
c700: z2_17_21 = 1 -> x_17 - x_21 >= 5
c701: z2_17_22 = 1 -> x_17 - x_22 >= 6
c702: z2_17_23 = 1 -> x_17 - x_23 >= 7
c703: z2_17_24 = 1 -> x_17 - x_24 >= 8
c704: z2_17_25 = 1 -> x_17 - x_25 >= 9
c705: z2_17_26 = 1 -> x_17 - x_26 >= 10
c706: z2_17_27 = 1 -> x_17 - x_27 >= 11
c707: z2_17_28 = 1 -> x_17 - x_28 >= 12
c708: z2_17_29 = 1 -> x_17 - x_29 >= 13
c709: z2_17_30 = 1 -> x_17 - x_30 >= 14
c710: z2_17_31 = 1 -> x_17 - x_31 >= 15
c711: z2_17_32 = 1 -> x_17 - x_32 >= 16
c712: z2_17_33 = 1 -> x_17 - x_33 >= 17
c713: z2_17_34 = 1 -> x_17 - x_34 >= 18
c714: z2_17_35 = 1 -> x_17 - x_35 >= 19
c715: z2_17_36 = 1 -> x_17 - x_36 >= 20
c716: z2_17_37 = 1 -> x_17 - x_37 >= 21
c717: z2_17_38 = 1 -> x_17 - x_38 >= 22
c718: z2_17_39 = 1 -> x_17 - x_39 >= 23
c719: z2_17_40 = 1 -> x_17 - x_40 >= 24
c720: z2_17_41 = 1 -> x_17 - x_41 >= 25
c721: z2_17_42 = 1 -> x_17 - x_42 >= 26
c722: z2_17_43 = 1 -> x_17 - x_43 >= 27
c723: z2_17_44 = 1 -> x_17 - x_44 >= 28
c724: z2_17_45 = 1 -> x_17 - x_45 >= 29
c725: z2_17_46 = 1 -> x_17 - x_46 >= 30
c726: z2_17_47 = 1 -> x_17 - x_47 >= 31
c727: z2_17_48 = 1 -> x_17 - x_48 >= 32
c728: z2_17_49 = 1 -> x_17 - x_49 >= 33
c729: z2_18_19 = 1 -> x_18 - x_19 >= 2
c730: z2_18_20 = 1 -> x_18 - x_20 >= 3
c731: z2_18_21 = 1 -> x_18 - x_21 >= 4
c732: z2_18_22 = 1 -> x_18 - x_22 >= 5
c733: z2_18_23 = 1 -> x_18 - x_23 >= 6
c734: z2_18_24 = 1 -> x_18 - x_24 >= 7
c735: z2_18_25 = 1 -> x_18 - x_25 >= 8
c736: z2_18_26 = 1 -> x_18 - x_26 >= 9
c737: z2_18_27 = 1 -> x_18 - x_27 >= 10
c738: z2_18_28 = 1 -> x_18 - x_28 >= 11
c739: z2_18_29 = 1 -> x_18 - x_29 >= 12
c740: z2_18_30 = 1 -> x_18 - x_30 >= 13
c741: z2_18_31 = 1 -> x_18 - x_31 >= 14
c742: z2_18_32 = 1 -> x_18 - x_32 >= 15
c743: z2_18_33 = 1 -> x_18 - x_33 >= 16
c744: z2_18_34 = 1 -> x_18 - x_34 >= 17
c745: z2_18_35 = 1 -> x_18 - x_35 >= 18
c746: z2_18_36 = 1 -> x_18 - x_36 >= 19
c747: z2_18_37 = 1 -> x_18 - x_37 >= 20
c748: z2_18_38 = 1 -> x_18 - x_38 >= 21
c749: z2_18_39 = 1 -> x_18 - x_39 >= 22
c750: z2_18_40 = 1 -> x_18 - x_40 >= 23
c751: z2_18_41 = 1 -> x_18 - x_41 >= 24
c752: z2_18_42 = 1 -> x_18 - x_42 >= 25
c753: z2_18_43 = 1 -> x_18 - x_43 >= 26
c754: z2_18_44 = 1 -> x_18 - x_44 >= 27
c755: z2_18_45 = 1 -> x_18 - x_45 >= 28
c756: z2_18_46 = 1 -> x_18 - x_46 >= 29
c757: z2_18_47 = 1 -> x_18 - x_47 >= 30
c758: z2_18_48 = 1 -> x_18 - x_48 >= 31
c759: z2_18_49 = 1 -> x_18 - x_49 >= 32
c760: z2_19_20 = 1 -> x_19 - x_20 >= 2
c761: z2_19_21 = 1 -> x_19 - x_21 >= 3
c762: z2_19_22 = 1 -> x_19 - x_22 >= 4
c763: z2_19_23 = 1 -> x_19 - x_23 >= 5
c764: z2_19_24 = 1 -> x_19 - x_24 >= 6
c765: z2_19_25 = 1 -> x_19 - x_25 >= 7
c766: z2_19_26 = 1 -> x_19 - x_26 >= 8
c767: z2_19_27 = 1 -> x_19 - x_27 >= 9
c768: z2_19_28 = 1 -> x_19 - x_28 >= 10
c769: z2_19_29 = 1 -> x_19 - x_29 >= 11
c770: z2_19_30 = 1 -> x_19 - x_30 >= 12
c771: z2_19_31 = 1 -> x_19 - x_31 >= 13
c772: z2_19_32 = 1 -> x_19 - x_32 >= 14
c773: z2_19_33 = 1 -> x_19 - x_33 >= 15
c774: z2_19_34 = 1 -> x_19 - x_34 >= 16
c775: z2_19_35 = 1 -> x_19 - x_35 >= 17
c776: z2_19_36 = 1 -> x_19 - x_36 >= 18
c777: z2_19_37 = 1 -> x_19 - x_37 >= 19
c778: z2_19_38 = 1 -> x_19 - x_38 >= 20
c779: z2_19_39 = 1 -> x_19 - x_39 >= 21
c780: z2_19_40 = 1 -> x_19 - x_40 >= 22
c781: z2_19_41 = 1 -> x_19 - x_41 >= 23
c782: z2_19_42 = 1 -> x_19 - x_42 >= 24
c783: z2_19_43 = 1 -> x_19 - x_43 >= 25
c784: z2_19_44 = 1 -> x_19 - x_44 >= 26
c785: z2_19_45 = 1 -> x_19 - x_45 >= 27
c786: z2_19_46 = 1 -> x_19 - x_46 >= 28
c787: z2_19_47 = 1 -> x_19 - x_47 >= 29
c788: z2_19_48 = 1 -> x_19 - x_48 >= 30
c789: z2_19_49 = 1 -> x_19 - x_49 >= 31
c790: z2_20_21 = 1 -> x_20 - x_21 >= 2
c791: z2_20_22 = 1 -> x_20 - x_22 >= 3
c792: z2_20_23 = 1 -> x_20 - x_23 >= 4
c793: z2_20_24 = 1 -> x_20 - x_24 >= 5
c794: z2_20_25 = 1 -> x_20 - x_25 >= 6
c795: z2_20_26 = 1 -> x_20 - x_26 >= 7
c796: z2_20_27 = 1 -> x_20 - x_27 >= 8
c797: z2_20_28 = 1 -> x_20 - x_28 >= 9
c798: z2_20_29 = 1 -> x_20 - x_29 >= 10
c799: z2_20_30 = 1 -> x_20 - x_30 >= 11
c800: z2_20_31 = 1 -> x_20 - x_31 >= 12
c801: z2_20_32 = 1 -> x_20 - x_32 >= 13
c802: z2_20_33 = 1 -> x_20 - x_33 >= 14
c803: z2_20_34 = 1 -> x_20 - x_34 >= 15
c804: z2_20_35 = 1 -> x_20 - x_35 >= 16
c805: z2_20_36 = 1 -> x_20 - x_36 >= 17
c806: z2_20_37 = 1 -> x_20 - x_37 >= 18
c807: z2_20_38 = 1 -> x_20 - x_38 >= 19
c808: z2_20_39 = 1 -> x_20 - x_39 >= 20
c809: z2_20_40 = 1 -> x_20 - x_40 >= 21
c810: z2_20_41 = 1 -> x_20 - x_41 >= 22
c811: z2_20_42 = 1 -> x_20 - x_42 >= 23
c812: z2_20_43 = 1 -> x_20 - x_43 >= 24
c813: z2_20_44 = 1 -> x_20 - x_44 >= 25
c814: z2_20_45 = 1 -> x_20 - x_45 >= 26
c815: z2_20_46 = 1 -> x_20 - x_46 >= 27
c816: z2_20_47 = 1 -> x_20 - x_47 >= 28
c817: z2_20_48 = 1 -> x_20 - x_48 >= 29
c818: z2_20_49 = 1 -> x_20 - x_49 >= 30
c819: z2_21_22 = 1 -> x_21 - x_22 >= 2
c820: z2_21_23 = 1 -> x_21 - x_23 >= 3
c821: z2_21_24 = 1 -> x_21 - x_24 >= 4
c822: z2_21_25 = 1 -> x_21 - x_25 >= 5
c823: z2_21_26 = 1 -> x_21 - x_26 >= 6
c824: z2_21_27 = 1 -> x_21 - x_27 >= 7
c825: z2_21_28 = 1 -> x_21 - x_28 >= 8
c826: z2_21_29 = 1 -> x_21 - x_29 >= 9
c827: z2_21_30 = 1 -> x_21 - x_30 >= 10
c828: z2_21_31 = 1 -> x_21 - x_31 >= 11
c829: z2_21_32 = 1 -> x_21 - x_32 >= 12
c830: z2_21_33 = 1 -> x_21 - x_33 >= 13
c831: z2_21_34 = 1 -> x_21 - x_34 >= 14
c832: z2_21_35 = 1 -> x_21 - x_35 >= 15
c833: z2_21_36 = 1 -> x_21 - x_36 >= 16
c834: z2_21_37 = 1 -> x_21 - x_37 >= 17
c835: z2_21_38 = 1 -> x_21 - x_38 >= 18
c836: z2_21_39 = 1 -> x_21 - x_39 >= 19
c837: z2_21_40 = 1 -> x_21 - x_40 >= 20
c838: z2_21_41 = 1 -> x_21 - x_41 >= 21
c839: z2_21_42 = 1 -> x_21 - x_42 >= 22
c840: z2_21_43 = 1 -> x_21 - x_43 >= 23
c841: z2_21_44 = 1 -> x_21 - x_44 >= 24
c842: z2_21_45 = 1 -> x_21 - x_45 >= 25
c843: z2_21_46 = 1 -> x_21 - x_46 >= 26
c844: z2_21_47 = 1 -> x_21 - x_47 >= 27
c845: z2_21_48 = 1 -> x_21 - x_48 >= 28
c846: z2_21_49 = 1 -> x_21 - x_49 >= 29
c847: z2_22_23 = 1 -> x_22 - x_23 >= 2
c848: z2_22_24 = 1 -> x_22 - x_24 >= 3
c849: z2_22_25 = 1 -> x_22 - x_25 >= 4
c850: z2_22_26 = 1 -> x_22 - x_26 >= 5
c851: z2_22_27 = 1 -> x_22 - x_27 >= 6
c852: z2_22_28 = 1 -> x_22 - x_28 >= 7
c853: z2_22_29 = 1 -> x_22 - x_29 >= 8
c854: z2_22_30 = 1 -> x_22 - x_30 >= 9
c855: z2_22_31 = 1 -> x_22 - x_31 >= 10
c856: z2_22_32 = 1 -> x_22 - x_32 >= 11
c857: z2_22_33 = 1 -> x_22 - x_33 >= 12
c858: z2_22_34 = 1 -> x_22 - x_34 >= 13
c859: z2_22_35 = 1 -> x_22 - x_35 >= 14
c860: z2_22_36 = 1 -> x_22 - x_36 >= 15
c861: z2_22_37 = 1 -> x_22 - x_37 >= 16
c862: z2_22_38 = 1 -> x_22 - x_38 >= 17
c863: z2_22_39 = 1 -> x_22 - x_39 >= 18
c864: z2_22_40 = 1 -> x_22 - x_40 >= 19
c865: z2_22_41 = 1 -> x_22 - x_41 >= 20
c866: z2_22_42 = 1 -> x_22 - x_42 >= 21
c867: z2_22_43 = 1 -> x_22 - x_43 >= 22
c868: z2_22_44 = 1 -> x_22 - x_44 >= 23
c869: z2_22_45 = 1 -> x_22 - x_45 >= 24
c870: z2_22_46 = 1 -> x_22 - x_46 >= 25
c871: z2_22_47 = 1 -> x_22 - x_47 >= 26
c872: z2_22_48 = 1 -> x_22 - x_48 >= 27
c873: z2_22_49 = 1 -> x_22 - x_49 >= 28
c874: z2_23_24 = 1 -> x_23 - x_24 >= 2
c875: z2_23_25 = 1 -> x_23 - x_25 >= 3
c876: z2_23_26 = 1 -> x_23 - x_26 >= 4
c877: z2_23_27 = 1 -> x_23 - x_27 >= 5
c878: z2_23_28 = 1 -> x_23 - x_28 >= 6
c879: z2_23_29 = 1 -> x_23 - x_29 >= 7
c880: z2_23_30 = 1 -> x_23 - x_30 >= 8
c881: z2_23_31 = 1 -> x_23 - x_31 >= 9
c882: z2_23_32 = 1 -> x_23 - x_32 >= 10
c883: z2_23_33 = 1 -> x_23 - x_33 >= 11
c884: z2_23_34 = 1 -> x_23 - x_34 >= 12
c885: z2_23_35 = 1 -> x_23 - x_35 >= 13
c886: z2_23_36 = 1 -> x_23 - x_36 >= 14
c887: z2_23_37 = 1 -> x_23 - x_37 >= 15
c888: z2_23_38 = 1 -> x_23 - x_38 >= 16
c889: z2_23_39 = 1 -> x_23 - x_39 >= 17
c890: z2_23_40 = 1 -> x_23 - x_40 >= 18
c891: z2_23_41 = 1 -> x_23 - x_41 >= 19
c892: z2_23_42 = 1 -> x_23 - x_42 >= 20
c893: z2_23_43 = 1 -> x_23 - x_43 >= 21
c894: z2_23_44 = 1 -> x_23 - x_44 >= 22
c895: z2_23_45 = 1 -> x_23 - x_45 >= 23
c896: z2_23_46 = 1 -> x_23 - x_46 >= 24
c897: z2_23_47 = 1 -> x_23 - x_47 >= 25
c898: z2_23_48 = 1 -> x_23 - x_48 >= 26
c899: z2_23_49 = 1 -> x_23 - x_49 >= 27
c900: z2_24_25 = 1 -> x_24 - x_25 >= 2
c901: z2_24_26 = 1 -> x_24 - x_26 >= 3
c902: z2_24_27 = 1 -> x_24 - x_27 >= 4
c903: z2_24_28 = 1 -> x_24 - x_28 >= 5
c904: z2_24_29 = 1 -> x_24 - x_29 >= 6
c905: z2_24_30 = 1 -> x_24 - x_30 >= 7
c906: z2_24_31 = 1 -> x_24 - x_31 >= 8
c907: z2_24_32 = 1 -> x_24 - x_32 >= 9
c908: z2_24_33 = 1 -> x_24 - x_33 >= 10
c909: z2_24_34 = 1 -> x_24 - x_34 >= 11
c910: z2_24_35 = 1 -> x_24 - x_35 >= 12
c911: z2_24_36 = 1 -> x_24 - x_36 >= 13
c912: z2_24_37 = 1 -> x_24 - x_37 >= 14
c913: z2_24_38 = 1 -> x_24 - x_38 >= 15
c914: z2_24_39 = 1 -> x_24 - x_39 >= 16
c915: z2_24_40 = 1 -> x_24 - x_40 >= 17
c916: z2_24_41 = 1 -> x_24 - x_41 >= 18
c917: z2_24_42 = 1 -> x_24 - x_42 >= 19
c918: z2_24_43 = 1 -> x_24 - x_43 >= 20
c919: z2_24_44 = 1 -> x_24 - x_44 >= 21
c920: z2_24_45 = 1 -> x_24 - x_45 >= 22
c921: z2_24_46 = 1 -> x_24 - x_46 >= 23
c922: z2_24_47 = 1 -> x_24 - x_47 >= 24
c923: z2_24_48 = 1 -> x_24 - x_48 >= 25
c924: z2_24_49 = 1 -> x_24 - x_49 >= 26
c925: z2_25_26 = 1 -> x_25 - x_26 >= 2
c926: z2_25_27 = 1 -> x_25 - x_27 >= 3
c927: z2_25_28 = 1 -> x_25 - x_28 >= 4
c928: z2_25_29 = 1 -> x_25 - x_29 >= 5
c929: z2_25_30 = 1 -> x_25 - x_30 >= 6
c930: z2_25_31 = 1 -> x_25 - x_31 >= 7
c931: z2_25_32 = 1 -> x_25 - x_32 >= 8
c932: z2_25_33 = 1 -> x_25 - x_33 >= 9
c933: z2_25_34 = 1 -> x_25 - x_34 >= 10
c934: z2_25_35 = 1 -> x_25 - x_35 >= 11
c935: z2_25_36 = 1 -> x_25 - x_36 >= 12
c936: z2_25_37 = 1 -> x_25 - x_37 >= 13
c937: z2_25_38 = 1 -> x_25 - x_38 >= 14
c938: z2_25_39 = 1 -> x_25 - x_39 >= 15
c939: z2_25_40 = 1 -> x_25 - x_40 >= 16
c940: z2_25_41 = 1 -> x_25 - x_41 >= 17
c941: z2_25_42 = 1 -> x_25 - x_42 >= 18
c942: z2_25_43 = 1 -> x_25 - x_43 >= 19
c943: z2_25_44 = 1 -> x_25 - x_44 >= 20
c944: z2_25_45 = 1 -> x_25 - x_45 >= 21
c945: z2_25_46 = 1 -> x_25 - x_46 >= 22
c946: z2_25_47 = 1 -> x_25 - x_47 >= 23
c947: z2_25_48 = 1 -> x_25 - x_48 >= 24
c948: z2_25_49 = 1 -> x_25 - x_49 >= 25
c949: z2_26_27 = 1 -> x_26 - x_27 >= 2
c950: z2_26_28 = 1 -> x_26 - x_28 >= 3
c951: z2_26_29 = 1 -> x_26 - x_29 >= 4
c952: z2_26_30 = 1 -> x_26 - x_30 >= 5
c953: z2_26_31 = 1 -> x_26 - x_31 >= 6
c954: z2_26_32 = 1 -> x_26 - x_32 >= 7
c955: z2_26_33 = 1 -> x_26 - x_33 >= 8
c956: z2_26_34 = 1 -> x_26 - x_34 >= 9
c957: z2_26_35 = 1 -> x_26 - x_35 >= 10
c958: z2_26_36 = 1 -> x_26 - x_36 >= 11
c959: z2_26_37 = 1 -> x_26 - x_37 >= 12
c960: z2_26_38 = 1 -> x_26 - x_38 >= 13
c961: z2_26_39 = 1 -> x_26 - x_39 >= 14
c962: z2_26_40 = 1 -> x_26 - x_40 >= 15
c963: z2_26_41 = 1 -> x_26 - x_41 >= 16
c964: z2_26_42 = 1 -> x_26 - x_42 >= 17
c965: z2_26_43 = 1 -> x_26 - x_43 >= 18
c966: z2_26_44 = 1 -> x_26 - x_44 >= 19
c967: z2_26_45 = 1 -> x_26 - x_45 >= 20
c968: z2_26_46 = 1 -> x_26 - x_46 >= 21
c969: z2_26_47 = 1 -> x_26 - x_47 >= 22
c970: z2_26_48 = 1 -> x_26 - x_48 >= 23
c971: z2_26_49 = 1 -> x_26 - x_49 >= 24
c972: z2_27_28 = 1 -> x_27 - x_28 >= 2
c973: z2_27_29 = 1 -> x_27 - x_29 >= 3
c974: z2_27_30 = 1 -> x_27 - x_30 >= 4
c975: z2_27_31 = 1 -> x_27 - x_31 >= 5
c976: z2_27_32 = 1 -> x_27 - x_32 >= 6
c977: z2_27_33 = 1 -> x_27 - x_33 >= 7
c978: z2_27_34 = 1 -> x_27 - x_34 >= 8
c979: z2_27_35 = 1 -> x_27 - x_35 >= 9
c980: z2_27_36 = 1 -> x_27 - x_36 >= 10
c981: z2_27_37 = 1 -> x_27 - x_37 >= 11
c982: z2_27_38 = 1 -> x_27 - x_38 >= 12
c983: z2_27_39 = 1 -> x_27 - x_39 >= 13
c984: z2_27_40 = 1 -> x_27 - x_40 >= 14
c985: z2_27_41 = 1 -> x_27 - x_41 >= 15
c986: z2_27_42 = 1 -> x_27 - x_42 >= 16
c987: z2_27_43 = 1 -> x_27 - x_43 >= 17
c988: z2_27_44 = 1 -> x_27 - x_44 >= 18
c989: z2_27_45 = 1 -> x_27 - x_45 >= 19
c990: z2_27_46 = 1 -> x_27 - x_46 >= 20
c991: z2_27_47 = 1 -> x_27 - x_47 >= 21
c992: z2_27_48 = 1 -> x_27 - x_48 >= 22
c993: z2_27_49 = 1 -> x_27 - x_49 >= 23
c994: z2_28_29 = 1 -> x_28 - x_29 >= 2
c995: z2_28_30 = 1 -> x_28 - x_30 >= 3
c996: z2_28_31 = 1 -> x_28 - x_31 >= 4
c997: z2_28_32 = 1 -> x_28 - x_32 >= 5
c998: z2_28_33 = 1 -> x_28 - x_33 >= 6
c999: z2_28_34 = 1 -> x_28 - x_34 >= 7
c1000: z2_28_35 = 1 -> x_28 - x_35 >= 8
c1001: z2_28_36 = 1 -> x_28 - x_36 >= 9
c1002: z2_28_37 = 1 -> x_28 - x_37 >= 10
c1003: z2_28_38 = 1 -> x_28 - x_38 >= 11
c1004: z2_28_39 = 1 -> x_28 - x_39 >= 12
c1005: z2_28_40 = 1 -> x_28 - x_40 >= 13
c1006: z2_28_41 = 1 -> x_28 - x_41 >= 14
c1007: z2_28_42 = 1 -> x_28 - x_42 >= 15
c1008: z2_28_43 = 1 -> x_28 - x_43 >= 16
c1009: z2_28_44 = 1 -> x_28 - x_44 >= 17
c1010: z2_28_45 = 1 -> x_28 - x_45 >= 18
c1011: z2_28_46 = 1 -> x_28 - x_46 >= 19
c1012: z2_28_47 = 1 -> x_28 - x_47 >= 20
c1013: z2_28_48 = 1 -> x_28 - x_48 >= 21
c1014: z2_28_49 = 1 -> x_28 - x_49 >= 22
c1015: z2_29_30 = 1 -> x_29 - x_30 >= 2
c1016: z2_29_31 = 1 -> x_29 - x_31 >= 3
c1017: z2_29_32 = 1 -> x_29 - x_32 >= 4
c1018: z2_29_33 = 1 -> x_29 - x_33 >= 5
c1019: z2_29_34 = 1 -> x_29 - x_34 >= 6
c1020: z2_29_35 = 1 -> x_29 - x_35 >= 7
c1021: z2_29_36 = 1 -> x_29 - x_36 >= 8
c1022: z2_29_37 = 1 -> x_29 - x_37 >= 9
c1023: z2_29_38 = 1 -> x_29 - x_38 >= 10
c1024: z2_29_39 = 1 -> x_29 - x_39 >= 11
c1025: z2_29_40 = 1 -> x_29 - x_40 >= 12
c1026: z2_29_41 = 1 -> x_29 - x_41 >= 13
c1027: z2_29_42 = 1 -> x_29 - x_42 >= 14
c1028: z2_29_43 = 1 -> x_29 - x_43 >= 15
c1029: z2_29_44 = 1 -> x_29 - x_44 >= 16
c1030: z2_29_45 = 1 -> x_29 - x_45 >= 17
c1031: z2_29_46 = 1 -> x_29 - x_46 >= 18
c1032: z2_29_47 = 1 -> x_29 - x_47 >= 19
c1033: z2_29_48 = 1 -> x_29 - x_48 >= 20
c1034: z2_29_49 = 1 -> x_29 - x_49 >= 21
c1035: z2_30_31 = 1 -> x_30 - x_31 >= 2
c1036: z2_30_32 = 1 -> x_30 - x_32 >= 3
c1037: z2_30_33 = 1 -> x_30 - x_33 >= 4
c1038: z2_30_34 = 1 -> x_30 - x_34 >= 5
c1039: z2_30_35 = 1 -> x_30 - x_35 >= 6
c1040: z2_30_36 = 1 -> x_30 - x_36 >= 7
c1041: z2_30_37 = 1 -> x_30 - x_37 >= 8
c1042: z2_30_38 = 1 -> x_30 - x_38 >= 9
c1043: z2_30_39 = 1 -> x_30 - x_39 >= 10
c1044: z2_30_40 = 1 -> x_30 - x_40 >= 11
c1045: z2_30_41 = 1 -> x_30 - x_41 >= 12
c1046: z2_30_42 = 1 -> x_30 - x_42 >= 13
c1047: z2_30_43 = 1 -> x_30 - x_43 >= 14
c1048: z2_30_44 = 1 -> x_30 - x_44 >= 15
c1049: z2_30_45 = 1 -> x_30 - x_45 >= 16
c1050: z2_30_46 = 1 -> x_30 - x_46 >= 17
c1051: z2_30_47 = 1 -> x_30 - x_47 >= 18
c1052: z2_30_48 = 1 -> x_30 - x_48 >= 19
c1053: z2_30_49 = 1 -> x_30 - x_49 >= 20
c1054: z2_31_32 = 1 -> x_31 - x_32 >= 2
c1055: z2_31_33 = 1 -> x_31 - x_33 >= 3
c1056: z2_31_34 = 1 -> x_31 - x_34 >= 4
c1057: z2_31_35 = 1 -> x_31 - x_35 >= 5
c1058: z2_31_36 = 1 -> x_31 - x_36 >= 6
c1059: z2_31_37 = 1 -> x_31 - x_37 >= 7
c1060: z2_31_38 = 1 -> x_31 - x_38 >= 8
c1061: z2_31_39 = 1 -> x_31 - x_39 >= 9
c1062: z2_31_40 = 1 -> x_31 - x_40 >= 10
c1063: z2_31_41 = 1 -> x_31 - x_41 >= 11
c1064: z2_31_42 = 1 -> x_31 - x_42 >= 12
c1065: z2_31_43 = 1 -> x_31 - x_43 >= 13
c1066: z2_31_44 = 1 -> x_31 - x_44 >= 14
c1067: z2_31_45 = 1 -> x_31 - x_45 >= 15
c1068: z2_31_46 = 1 -> x_31 - x_46 >= 16
c1069: z2_31_47 = 1 -> x_31 - x_47 >= 17
c1070: z2_31_48 = 1 -> x_31 - x_48 >= 18
c1071: z2_31_49 = 1 -> x_31 - x_49 >= 19
c1072: z2_32_33 = 1 -> x_32 - x_33 >= 2
c1073: z2_32_34 = 1 -> x_32 - x_34 >= 3
c1074: z2_32_35 = 1 -> x_32 - x_35 >= 4
c1075: z2_32_36 = 1 -> x_32 - x_36 >= 5
c1076: z2_32_37 = 1 -> x_32 - x_37 >= 6
c1077: z2_32_38 = 1 -> x_32 - x_38 >= 7
c1078: z2_32_39 = 1 -> x_32 - x_39 >= 8
c1079: z2_32_40 = 1 -> x_32 - x_40 >= 9
c1080: z2_32_41 = 1 -> x_32 - x_41 >= 10
c1081: z2_32_42 = 1 -> x_32 - x_42 >= 11
c1082: z2_32_43 = 1 -> x_32 - x_43 >= 12
c1083: z2_32_44 = 1 -> x_32 - x_44 >= 13
c1084: z2_32_45 = 1 -> x_32 - x_45 >= 14
c1085: z2_32_46 = 1 -> x_32 - x_46 >= 15
c1086: z2_32_47 = 1 -> x_32 - x_47 >= 16
c1087: z2_32_48 = 1 -> x_32 - x_48 >= 17
c1088: z2_32_49 = 1 -> x_32 - x_49 >= 18
c1089: z2_33_34 = 1 -> x_33 - x_34 >= 2
c1090: z2_33_35 = 1 -> x_33 - x_35 >= 3
c1091: z2_33_36 = 1 -> x_33 - x_36 >= 4
c1092: z2_33_37 = 1 -> x_33 - x_37 >= 5
c1093: z2_33_38 = 1 -> x_33 - x_38 >= 6
c1094: z2_33_39 = 1 -> x_33 - x_39 >= 7
c1095: z2_33_40 = 1 -> x_33 - x_40 >= 8
c1096: z2_33_41 = 1 -> x_33 - x_41 >= 9
c1097: z2_33_42 = 1 -> x_33 - x_42 >= 10
c1098: z2_33_43 = 1 -> x_33 - x_43 >= 11
c1099: z2_33_44 = 1 -> x_33 - x_44 >= 12
c1100: z2_33_45 = 1 -> x_33 - x_45 >= 13
c1101: z2_33_46 = 1 -> x_33 - x_46 >= 14
c1102: z2_33_47 = 1 -> x_33 - x_47 >= 15
c1103: z2_33_48 = 1 -> x_33 - x_48 >= 16
c1104: z2_33_49 = 1 -> x_33 - x_49 >= 17
c1105: z2_34_35 = 1 -> x_34 - x_35 >= 2
c1106: z2_34_36 = 1 -> x_34 - x_36 >= 3
c1107: z2_34_37 = 1 -> x_34 - x_37 >= 4
c1108: z2_34_38 = 1 -> x_34 - x_38 >= 5
c1109: z2_34_39 = 1 -> x_34 - x_39 >= 6
c1110: z2_34_40 = 1 -> x_34 - x_40 >= 7
c1111: z2_34_41 = 1 -> x_34 - x_41 >= 8
c1112: z2_34_42 = 1 -> x_34 - x_42 >= 9
c1113: z2_34_43 = 1 -> x_34 - x_43 >= 10
c1114: z2_34_44 = 1 -> x_34 - x_44 >= 11
c1115: z2_34_45 = 1 -> x_34 - x_45 >= 12
c1116: z2_34_46 = 1 -> x_34 - x_46 >= 13
c1117: z2_34_47 = 1 -> x_34 - x_47 >= 14
c1118: z2_34_48 = 1 -> x_34 - x_48 >= 15
c1119: z2_34_49 = 1 -> x_34 - x_49 >= 16
c1120: z2_35_36 = 1 -> x_35 - x_36 >= 2
c1121: z2_35_37 = 1 -> x_35 - x_37 >= 3
c1122: z2_35_38 = 1 -> x_35 - x_38 >= 4
c1123: z2_35_39 = 1 -> x_35 - x_39 >= 5
c1124: z2_35_40 = 1 -> x_35 - x_40 >= 6
c1125: z2_35_41 = 1 -> x_35 - x_41 >= 7
c1126: z2_35_42 = 1 -> x_35 - x_42 >= 8
c1127: z2_35_43 = 1 -> x_35 - x_43 >= 9
c1128: z2_35_44 = 1 -> x_35 - x_44 >= 10
c1129: z2_35_45 = 1 -> x_35 - x_45 >= 11
c1130: z2_35_46 = 1 -> x_35 - x_46 >= 12
c1131: z2_35_47 = 1 -> x_35 - x_47 >= 13
c1132: z2_35_48 = 1 -> x_35 - x_48 >= 14
c1133: z2_35_49 = 1 -> x_35 - x_49 >= 15
c1134: z2_36_37 = 1 -> x_36 - x_37 >= 2
c1135: z2_36_38 = 1 -> x_36 - x_38 >= 3
c1136: z2_36_39 = 1 -> x_36 - x_39 >= 4
c1137: z2_36_40 = 1 -> x_36 - x_40 >= 5
c1138: z2_36_41 = 1 -> x_36 - x_41 >= 6
c1139: z2_36_42 = 1 -> x_36 - x_42 >= 7
c1140: z2_36_43 = 1 -> x_36 - x_43 >= 8
c1141: z2_36_44 = 1 -> x_36 - x_44 >= 9
c1142: z2_36_45 = 1 -> x_36 - x_45 >= 10
c1143: z2_36_46 = 1 -> x_36 - x_46 >= 11
c1144: z2_36_47 = 1 -> x_36 - x_47 >= 12
c1145: z2_36_48 = 1 -> x_36 - x_48 >= 13
c1146: z2_36_49 = 1 -> x_36 - x_49 >= 14
c1147: z2_37_38 = 1 -> x_37 - x_38 >= 2
c1148: z2_37_39 = 1 -> x_37 - x_39 >= 3
c1149: z2_37_40 = 1 -> x_37 - x_40 >= 4
c1150: z2_37_41 = 1 -> x_37 - x_41 >= 5
c1151: z2_37_42 = 1 -> x_37 - x_42 >= 6
c1152: z2_37_43 = 1 -> x_37 - x_43 >= 7
c1153: z2_37_44 = 1 -> x_37 - x_44 >= 8
c1154: z2_37_45 = 1 -> x_37 - x_45 >= 9
c1155: z2_37_46 = 1 -> x_37 - x_46 >= 10
c1156: z2_37_47 = 1 -> x_37 - x_47 >= 11
c1157: z2_37_48 = 1 -> x_37 - x_48 >= 12
c1158: z2_37_49 = 1 -> x_37 - x_49 >= 13
c1159: z2_38_39 = 1 -> x_38 - x_39 >= 2
c1160: z2_38_40 = 1 -> x_38 - x_40 >= 3
c1161: z2_38_41 = 1 -> x_38 - x_41 >= 4
c1162: z2_38_42 = 1 -> x_38 - x_42 >= 5
c1163: z2_38_43 = 1 -> x_38 - x_43 >= 6
c1164: z2_38_44 = 1 -> x_38 - x_44 >= 7
c1165: z2_38_45 = 1 -> x_38 - x_45 >= 8
c1166: z2_38_46 = 1 -> x_38 - x_46 >= 9
c1167: z2_38_47 = 1 -> x_38 - x_47 >= 10
c1168: z2_38_48 = 1 -> x_38 - x_48 >= 11
c1169: z2_38_49 = 1 -> x_38 - x_49 >= 12
c1170: z2_39_40 = 1 -> x_39 - x_40 >= 2
c1171: z2_39_41 = 1 -> x_39 - x_41 >= 3
c1172: z2_39_42 = 1 -> x_39 - x_42 >= 4
c1173: z2_39_43 = 1 -> x_39 - x_43 >= 5
c1174: z2_39_44 = 1 -> x_39 - x_44 >= 6
c1175: z2_39_45 = 1 -> x_39 - x_45 >= 7
c1176: z2_39_46 = 1 -> x_39 - x_46 >= 8
c1177: z2_39_47 = 1 -> x_39 - x_47 >= 9
c1178: z2_39_48 = 1 -> x_39 - x_48 >= 10
c1179: z2_39_49 = 1 -> x_39 - x_49 >= 11
c1180: z2_40_41 = 1 -> x_40 - x_41 >= 2
c1181: z2_40_42 = 1 -> x_40 - x_42 >= 3
c1182: z2_40_43 = 1 -> x_40 - x_43 >= 4
c1183: z2_40_44 = 1 -> x_40 - x_44 >= 5
c1184: z2_40_45 = 1 -> x_40 - x_45 >= 6
c1185: z2_40_46 = 1 -> x_40 - x_46 >= 7
c1186: z2_40_47 = 1 -> x_40 - x_47 >= 8
c1187: z2_40_48 = 1 -> x_40 - x_48 >= 9
c1188: z2_40_49 = 1 -> x_40 - x_49 >= 10
c1189: z2_41_42 = 1 -> x_41 - x_42 >= 2
c1190: z2_41_43 = 1 -> x_41 - x_43 >= 3
c1191: z2_41_44 = 1 -> x_41 - x_44 >= 4
c1192: z2_41_45 = 1 -> x_41 - x_45 >= 5
c1193: z2_41_46 = 1 -> x_41 - x_46 >= 6
c1194: z2_41_47 = 1 -> x_41 - x_47 >= 7
c1195: z2_41_48 = 1 -> x_41 - x_48 >= 8
c1196: z2_41_49 = 1 -> x_41 - x_49 >= 9
c1197: z2_42_43 = 1 -> x_42 - x_43 >= 2
c1198: z2_42_44 = 1 -> x_42 - x_44 >= 3
c1199: z2_42_45 = 1 -> x_42 - x_45 >= 4
c1200: z2_42_46 = 1 -> x_42 - x_46 >= 5
c1201: z2_42_47 = 1 -> x_42 - x_47 >= 6
c1202: z2_42_48 = 1 -> x_42 - x_48 >= 7
c1203: z2_42_49 = 1 -> x_42 - x_49 >= 8
c1204: z2_43_44 = 1 -> x_43 - x_44 >= 2
c1205: z2_43_45 = 1 -> x_43 - x_45 >= 3
c1206: z2_43_46 = 1 -> x_43 - x_46 >= 4
c1207: z2_43_47 = 1 -> x_43 - x_47 >= 5
c1208: z2_43_48 = 1 -> x_43 - x_48 >= 6
c1209: z2_43_49 = 1 -> x_43 - x_49 >= 7
c1210: z2_44_45 = 1 -> x_44 - x_45 >= 2
c1211: z2_44_46 = 1 -> x_44 - x_46 >= 3
c1212: z2_44_47 = 1 -> x_44 - x_47 >= 4
c1213: z2_44_48 = 1 -> x_44 - x_48 >= 5
c1214: z2_44_49 = 1 -> x_44 - x_49 >= 6
c1215: z2_45_46 = 1 -> x_45 - x_46 >= 2
c1216: z2_45_47 = 1 -> x_45 - x_47 >= 3
c1217: z2_45_48 = 1 -> x_45 - x_48 >= 4
c1218: z2_45_49 = 1 -> x_45 - x_49 >= 5
c1219: z2_46_47 = 1 -> x_46 - x_47 >= 2
c1220: z2_46_48 = 1 -> x_46 - x_48 >= 3
c1221: z2_46_49 = 1 -> x_46 - x_49 >= 4
c1222: z2_47_48 = 1 -> x_47 - x_48 >= 2
c1223: z2_47_49 = 1 -> x_47 - x_49 >= 3
c1224: z2_48_49 = 1 -> x_48 - x_49 >= 2
d0: z2_0_1 = 0 -> x_0 - x_1 <= 0
d1: z2_0_2 = 0 -> x_0 - x_2 <= 1
d2: z2_0_3 = 0 -> x_0 - x_3 <= 2
d3: z2_0_4 = 0 -> x_0 - x_4 <= 3
d4: z2_0_5 = 0 -> x_0 - x_5 <= 4
d5: z2_0_6 = 0 -> x_0 - x_6 <= 5
d6: z2_0_7 = 0 -> x_0 - x_7 <= 6
d7: z2_0_8 = 0 -> x_0 - x_8 <= 7
d8: z2_0_9 = 0 -> x_0 - x_9 <= 8
d9: z2_0_10 = 0 -> x_0 - x_10 <= 9
d10: z2_0_11 = 0 -> x_0 - x_11 <= 10
d11: z2_0_12 = 0 -> x_0 - x_12 <= 11
d12: z2_0_13 = 0 -> x_0 - x_13 <= 12
d13: z2_0_14 = 0 -> x_0 - x_14 <= 13
d14: z2_0_15 = 0 -> x_0 - x_15 <= 14
d15: z2_0_16 = 0 -> x_0 - x_16 <= 15
d16: z2_0_17 = 0 -> x_0 - x_17 <= 16
d17: z2_0_18 = 0 -> x_0 - x_18 <= 17
d18: z2_0_19 = 0 -> x_0 - x_19 <= 18
d19: z2_0_20 = 0 -> x_0 - x_20 <= 19
d20: z2_0_21 = 0 -> x_0 - x_21 <= 20
d21: z2_0_22 = 0 -> x_0 - x_22 <= 21
d22: z2_0_23 = 0 -> x_0 - x_23 <= 22
d23: z2_0_24 = 0 -> x_0 - x_24 <= 23
d24: z2_0_25 = 0 -> x_0 - x_25 <= 24
d25: z2_0_26 = 0 -> x_0 - x_26 <= 25
d26: z2_0_27 = 0 -> x_0 - x_27 <= 26
d27: z2_0_28 = 0 -> x_0 - x_28 <= 27
d28: z2_0_29 = 0 -> x_0 - x_29 <= 28
d29: z2_0_30 = 0 -> x_0 - x_30 <= 29
d30: z2_0_31 = 0 -> x_0 - x_31 <= 30
d31: z2_0_32 = 0 -> x_0 - x_32 <= 31
d32: z2_0_33 = 0 -> x_0 - x_33 <= 32
d33: z2_0_34 = 0 -> x_0 - x_34 <= 33
d34: z2_0_35 = 0 -> x_0 - x_35 <= 34
d35: z2_0_36 = 0 -> x_0 - x_36 <= 35
d36: z2_0_37 = 0 -> x_0 - x_37 <= 36
d37: z2_0_38 = 0 -> x_0 - x_38 <= 37
d38: z2_0_39 = 0 -> x_0 - x_39 <= 38
d39: z2_0_40 = 0 -> x_0 - x_40 <= 39
d40: z2_0_41 = 0 -> x_0 - x_41 <= 40
d41: z2_0_42 = 0 -> x_0 - x_42 <= 41
d42: z2_0_43 = 0 -> x_0 - x_43 <= 42
d43: z2_0_44 = 0 -> x_0 - x_44 <= 43
d44: z2_0_45 = 0 -> x_0 - x_45 <= 44
d45: z2_0_46 = 0 -> x_0 - x_46 <= 45
d46: z2_0_47 = 0 -> x_0 - x_47 <= 46
d47: z2_0_48 = 0 -> x_0 - x_48 <= 47
d48: z2_0_49 = 0 -> x_0 - x_49 <= 48
d49: z2_1_2 = 0 -> x_1 - x_2 <= 0
d50: z2_1_3 = 0 -> x_1 - x_3 <= 1
d51: z2_1_4 = 0 -> x_1 - x_4 <= 2
d52: z2_1_5 = 0 -> x_1 - x_5 <= 3
d53: z2_1_6 = 0 -> x_1 - x_6 <= 4
d54: z2_1_7 = 0 -> x_1 - x_7 <= 5
d55: z2_1_8 = 0 -> x_1 - x_8 <= 6
d56: z2_1_9 = 0 -> x_1 - x_9 <= 7
d57: z2_1_10 = 0 -> x_1 - x_10 <= 8
d58: z2_1_11 = 0 -> x_1 - x_11 <= 9
d59: z2_1_12 = 0 -> x_1 - x_12 <= 10
d60: z2_1_13 = 0 -> x_1 - x_13 <= 11
d61: z2_1_14 = 0 -> x_1 - x_14 <= 12
d62: z2_1_15 = 0 -> x_1 - x_15 <= 13
d63: z2_1_16 = 0 -> x_1 - x_16 <= 14
d64: z2_1_17 = 0 -> x_1 - x_17 <= 15
d65: z2_1_18 = 0 -> x_1 - x_18 <= 16
d66: z2_1_19 = 0 -> x_1 - x_19 <= 17
d67: z2_1_20 = 0 -> x_1 - x_20 <= 18
d68: z2_1_21 = 0 -> x_1 - x_21 <= 19
d69: z2_1_22 = 0 -> x_1 - x_22 <= 20
d70: z2_1_23 = 0 -> x_1 - x_23 <= 21
d71: z2_1_24 = 0 -> x_1 - x_24 <= 22
d72: z2_1_25 = 0 -> x_1 - x_25 <= 23
d73: z2_1_26 = 0 -> x_1 - x_26 <= 24
d74: z2_1_27 = 0 -> x_1 - x_27 <= 25
d75: z2_1_28 = 0 -> x_1 - x_28 <= 26
d76: z2_1_29 = 0 -> x_1 - x_29 <= 27
d77: z2_1_30 = 0 -> x_1 - x_30 <= 28
d78: z2_1_31 = 0 -> x_1 - x_31 <= 29
d79: z2_1_32 = 0 -> x_1 - x_32 <= 30
d80: z2_1_33 = 0 -> x_1 - x_33 <= 31
d81: z2_1_34 = 0 -> x_1 - x_34 <= 32
d82: z2_1_35 = 0 -> x_1 - x_35 <= 33
d83: z2_1_36 = 0 -> x_1 - x_36 <= 34
d84: z2_1_37 = 0 -> x_1 - x_37 <= 35
d85: z2_1_38 = 0 -> x_1 - x_38 <= 36
d86: z2_1_39 = 0 -> x_1 - x_39 <= 37
d87: z2_1_40 = 0 -> x_1 - x_40 <= 38
d88: z2_1_41 = 0 -> x_1 - x_41 <= 39
d89: z2_1_42 = 0 -> x_1 - x_42 <= 40
d90: z2_1_43 = 0 -> x_1 - x_43 <= 41
d91: z2_1_44 = 0 -> x_1 - x_44 <= 42
d92: z2_1_45 = 0 -> x_1 - x_45 <= 43
d93: z2_1_46 = 0 -> x_1 - x_46 <= 44
d94: z2_1_47 = 0 -> x_1 - x_47 <= 45
d95: z2_1_48 = 0 -> x_1 - x_48 <= 46
d96: z2_1_49 = 0 -> x_1 - x_49 <= 47
d97: z2_2_3 = 0 -> x_2 - x_3 <= 0
d98: z2_2_4 = 0 -> x_2 - x_4 <= 1
d99: z2_2_5 = 0 -> x_2 - x_5 <= 2
d100: z2_2_6 = 0 -> x_2 - x_6 <= 3
d101: z2_2_7 = 0 -> x_2 - x_7 <= 4
d102: z2_2_8 = 0 -> x_2 - x_8 <= 5
d103: z2_2_9 = 0 -> x_2 - x_9 <= 6
d104: z2_2_10 = 0 -> x_2 - x_10 <= 7
d105: z2_2_11 = 0 -> x_2 - x_11 <= 8
d106: z2_2_12 = 0 -> x_2 - x_12 <= 9
d107: z2_2_13 = 0 -> x_2 - x_13 <= 10
d108: z2_2_14 = 0 -> x_2 - x_14 <= 11
d109: z2_2_15 = 0 -> x_2 - x_15 <= 12
d110: z2_2_16 = 0 -> x_2 - x_16 <= 13
d111: z2_2_17 = 0 -> x_2 - x_17 <= 14
d112: z2_2_18 = 0 -> x_2 - x_18 <= 15
d113: z2_2_19 = 0 -> x_2 - x_19 <= 16
d114: z2_2_20 = 0 -> x_2 - x_20 <= 17
d115: z2_2_21 = 0 -> x_2 - x_21 <= 18
d116: z2_2_22 = 0 -> x_2 - x_22 <= 19
d117: z2_2_23 = 0 -> x_2 - x_23 <= 20
d118: z2_2_24 = 0 -> x_2 - x_24 <= 21
d119: z2_2_25 = 0 -> x_2 - x_25 <= 22
d120: z2_2_26 = 0 -> x_2 - x_26 <= 23
d121: z2_2_27 = 0 -> x_2 - x_27 <= 24
d122: z2_2_28 = 0 -> x_2 - x_28 <= 25
d123: z2_2_29 = 0 -> x_2 - x_29 <= 26
d124: z2_2_30 = 0 -> x_2 - x_30 <= 27
d125: z2_2_31 = 0 -> x_2 - x_31 <= 28
d126: z2_2_32 = 0 -> x_2 - x_32 <= 29
d127: z2_2_33 = 0 -> x_2 - x_33 <= 30
d128: z2_2_34 = 0 -> x_2 - x_34 <= 31
d129: z2_2_35 = 0 -> x_2 - x_35 <= 32
d130: z2_2_36 = 0 -> x_2 - x_36 <= 33
d131: z2_2_37 = 0 -> x_2 - x_37 <= 34
d132: z2_2_38 = 0 -> x_2 - x_38 <= 35
d133: z2_2_39 = 0 -> x_2 - x_39 <= 36
d134: z2_2_40 = 0 -> x_2 - x_40 <= 37
d135: z2_2_41 = 0 -> x_2 - x_41 <= 38
d136: z2_2_42 = 0 -> x_2 - x_42 <= 39
d137: z2_2_43 = 0 -> x_2 - x_43 <= 40
d138: z2_2_44 = 0 -> x_2 - x_44 <= 41
d139: z2_2_45 = 0 -> x_2 - x_45 <= 42
d140: z2_2_46 = 0 -> x_2 - x_46 <= 43
d141: z2_2_47 = 0 -> x_2 - x_47 <= 44
d142: z2_2_48 = 0 -> x_2 - x_48 <= 45
d143: z2_2_49 = 0 -> x_2 - x_49 <= 46
d144: z2_3_4 = 0 -> x_3 - x_4 <= 0
d145: z2_3_5 = 0 -> x_3 - x_5 <= 1
d146: z2_3_6 = 0 -> x_3 - x_6 <= 2
d147: z2_3_7 = 0 -> x_3 - x_7 <= 3
d148: z2_3_8 = 0 -> x_3 - x_8 <= 4
d149: z2_3_9 = 0 -> x_3 - x_9 <= 5
d150: z2_3_10 = 0 -> x_3 - x_10 <= 6
d151: z2_3_11 = 0 -> x_3 - x_11 <= 7
d152: z2_3_12 = 0 -> x_3 - x_12 <= 8
d153: z2_3_13 = 0 -> x_3 - x_13 <= 9
d154: z2_3_14 = 0 -> x_3 - x_14 <= 10
d155: z2_3_15 = 0 -> x_3 - x_15 <= 11
d156: z2_3_16 = 0 -> x_3 - x_16 <= 12
d157: z2_3_17 = 0 -> x_3 - x_17 <= 13
d158: z2_3_18 = 0 -> x_3 - x_18 <= 14
d159: z2_3_19 = 0 -> x_3 - x_19 <= 15
d160: z2_3_20 = 0 -> x_3 - x_20 <= 16
d161: z2_3_21 = 0 -> x_3 - x_21 <= 17
d162: z2_3_22 = 0 -> x_3 - x_22 <= 18
d163: z2_3_23 = 0 -> x_3 - x_23 <= 19
d164: z2_3_24 = 0 -> x_3 - x_24 <= 20
d165: z2_3_25 = 0 -> x_3 - x_25 <= 21
d166: z2_3_26 = 0 -> x_3 - x_26 <= 22
d167: z2_3_27 = 0 -> x_3 - x_27 <= 23
d168: z2_3_28 = 0 -> x_3 - x_28 <= 24
d169: z2_3_29 = 0 -> x_3 - x_29 <= 25
d170: z2_3_30 = 0 -> x_3 - x_30 <= 26
d171: z2_3_31 = 0 -> x_3 - x_31 <= 27
d172: z2_3_32 = 0 -> x_3 - x_32 <= 28
d173: z2_3_33 = 0 -> x_3 - x_33 <= 29
d174: z2_3_34 = 0 -> x_3 - x_34 <= 30
d175: z2_3_35 = 0 -> x_3 - x_35 <= 31
d176: z2_3_36 = 0 -> x_3 - x_36 <= 32
d177: z2_3_37 = 0 -> x_3 - x_37 <= 33
d178: z2_3_38 = 0 -> x_3 - x_38 <= 34
d179: z2_3_39 = 0 -> x_3 - x_39 <= 35
d180: z2_3_40 = 0 -> x_3 - x_40 <= 36
d181: z2_3_41 = 0 -> x_3 - x_41 <= 37
d182: z2_3_42 = 0 -> x_3 - x_42 <= 38
d183: z2_3_43 = 0 -> x_3 - x_43 <= 39
d184: z2_3_44 = 0 -> x_3 - x_44 <= 40
d185: z2_3_45 = 0 -> x_3 - x_45 <= 41
d186: z2_3_46 = 0 -> x_3 - x_46 <= 42
d187: z2_3_47 = 0 -> x_3 - x_47 <= 43
d188: z2_3_48 = 0 -> x_3 - x_48 <= 44
d189: z2_3_49 = 0 -> x_3 - x_49 <= 45
d190: z2_4_5 = 0 -> x_4 - x_5 <= 0
d191: z2_4_6 = 0 -> x_4 - x_6 <= 1
d192: z2_4_7 = 0 -> x_4 - x_7 <= 2
d193: z2_4_8 = 0 -> x_4 - x_8 <= 3
d194: z2_4_9 = 0 -> x_4 - x_9 <= 4
d195: z2_4_10 = 0 -> x_4 - x_10 <= 5
d196: z2_4_11 = 0 -> x_4 - x_11 <= 6
d197: z2_4_12 = 0 -> x_4 - x_12 <= 7
d198: z2_4_13 = 0 -> x_4 - x_13 <= 8
d199: z2_4_14 = 0 -> x_4 - x_14 <= 9
d200: z2_4_15 = 0 -> x_4 - x_15 <= 10
d201: z2_4_16 = 0 -> x_4 - x_16 <= 11
d202: z2_4_17 = 0 -> x_4 - x_17 <= 12
d203: z2_4_18 = 0 -> x_4 - x_18 <= 13
d204: z2_4_19 = 0 -> x_4 - x_19 <= 14
d205: z2_4_20 = 0 -> x_4 - x_20 <= 15
d206: z2_4_21 = 0 -> x_4 - x_21 <= 16
d207: z2_4_22 = 0 -> x_4 - x_22 <= 17
d208: z2_4_23 = 0 -> x_4 - x_23 <= 18
d209: z2_4_24 = 0 -> x_4 - x_24 <= 19
d210: z2_4_25 = 0 -> x_4 - x_25 <= 20
d211: z2_4_26 = 0 -> x_4 - x_26 <= 21
d212: z2_4_27 = 0 -> x_4 - x_27 <= 22
d213: z2_4_28 = 0 -> x_4 - x_28 <= 23
d214: z2_4_29 = 0 -> x_4 - x_29 <= 24
d215: z2_4_30 = 0 -> x_4 - x_30 <= 25
d216: z2_4_31 = 0 -> x_4 - x_31 <= 26
d217: z2_4_32 = 0 -> x_4 - x_32 <= 27
d218: z2_4_33 = 0 -> x_4 - x_33 <= 28
d219: z2_4_34 = 0 -> x_4 - x_34 <= 29
d220: z2_4_35 = 0 -> x_4 - x_35 <= 30
d221: z2_4_36 = 0 -> x_4 - x_36 <= 31
d222: z2_4_37 = 0 -> x_4 - x_37 <= 32
d223: z2_4_38 = 0 -> x_4 - x_38 <= 33
d224: z2_4_39 = 0 -> x_4 - x_39 <= 34
d225: z2_4_40 = 0 -> x_4 - x_40 <= 35
d226: z2_4_41 = 0 -> x_4 - x_41 <= 36
d227: z2_4_42 = 0 -> x_4 - x_42 <= 37
d228: z2_4_43 = 0 -> x_4 - x_43 <= 38
d229: z2_4_44 = 0 -> x_4 - x_44 <= 39
d230: z2_4_45 = 0 -> x_4 - x_45 <= 40
d231: z2_4_46 = 0 -> x_4 - x_46 <= 41
d232: z2_4_47 = 0 -> x_4 - x_47 <= 42
d233: z2_4_48 = 0 -> x_4 - x_48 <= 43
d234: z2_4_49 = 0 -> x_4 - x_49 <= 44
d235: z2_5_6 = 0 -> x_5 - x_6 <= 0
d236: z2_5_7 = 0 -> x_5 - x_7 <= 1
d237: z2_5_8 = 0 -> x_5 - x_8 <= 2
d238: z2_5_9 = 0 -> x_5 - x_9 <= 3
d239: z2_5_10 = 0 -> x_5 - x_10 <= 4
d240: z2_5_11 = 0 -> x_5 - x_11 <= 5
d241: z2_5_12 = 0 -> x_5 - x_12 <= 6
d242: z2_5_13 = 0 -> x_5 - x_13 <= 7
d243: z2_5_14 = 0 -> x_5 - x_14 <= 8
d244: z2_5_15 = 0 -> x_5 - x_15 <= 9
d245: z2_5_16 = 0 -> x_5 - x_16 <= 10
d246: z2_5_17 = 0 -> x_5 - x_17 <= 11
d247: z2_5_18 = 0 -> x_5 - x_18 <= 12
d248: z2_5_19 = 0 -> x_5 - x_19 <= 13
d249: z2_5_20 = 0 -> x_5 - x_20 <= 14
d250: z2_5_21 = 0 -> x_5 - x_21 <= 15
d251: z2_5_22 = 0 -> x_5 - x_22 <= 16
d252: z2_5_23 = 0 -> x_5 - x_23 <= 17
d253: z2_5_24 = 0 -> x_5 - x_24 <= 18
d254: z2_5_25 = 0 -> x_5 - x_25 <= 19
d255: z2_5_26 = 0 -> x_5 - x_26 <= 20
d256: z2_5_27 = 0 -> x_5 - x_27 <= 21
d257: z2_5_28 = 0 -> x_5 - x_28 <= 22
d258: z2_5_29 = 0 -> x_5 - x_29 <= 23
d259: z2_5_30 = 0 -> x_5 - x_30 <= 24
d260: z2_5_31 = 0 -> x_5 - x_31 <= 25
d261: z2_5_32 = 0 -> x_5 - x_32 <= 26
d262: z2_5_33 = 0 -> x_5 - x_33 <= 27
d263: z2_5_34 = 0 -> x_5 - x_34 <= 28
d264: z2_5_35 = 0 -> x_5 - x_35 <= 29
d265: z2_5_36 = 0 -> x_5 - x_36 <= 30
d266: z2_5_37 = 0 -> x_5 - x_37 <= 31
d267: z2_5_38 = 0 -> x_5 - x_38 <= 32
d268: z2_5_39 = 0 -> x_5 - x_39 <= 33
d269: z2_5_40 = 0 -> x_5 - x_40 <= 34
d270: z2_5_41 = 0 -> x_5 - x_41 <= 35
d271: z2_5_42 = 0 -> x_5 - x_42 <= 36
d272: z2_5_43 = 0 -> x_5 - x_43 <= 37
d273: z2_5_44 = 0 -> x_5 - x_44 <= 38
d274: z2_5_45 = 0 -> x_5 - x_45 <= 39
d275: z2_5_46 = 0 -> x_5 - x_46 <= 40
d276: z2_5_47 = 0 -> x_5 - x_47 <= 41
d277: z2_5_48 = 0 -> x_5 - x_48 <= 42
d278: z2_5_49 = 0 -> x_5 - x_49 <= 43
d279: z2_6_7 = 0 -> x_6 - x_7 <= 0
d280: z2_6_8 = 0 -> x_6 - x_8 <= 1
d281: z2_6_9 = 0 -> x_6 - x_9 <= 2
d282: z2_6_10 = 0 -> x_6 - x_10 <= 3
d283: z2_6_11 = 0 -> x_6 - x_11 <= 4
d284: z2_6_12 = 0 -> x_6 - x_12 <= 5
d285: z2_6_13 = 0 -> x_6 - x_13 <= 6
d286: z2_6_14 = 0 -> x_6 - x_14 <= 7
d287: z2_6_15 = 0 -> x_6 - x_15 <= 8
d288: z2_6_16 = 0 -> x_6 - x_16 <= 9
d289: z2_6_17 = 0 -> x_6 - x_17 <= 10
d290: z2_6_18 = 0 -> x_6 - x_18 <= 11
d291: z2_6_19 = 0 -> x_6 - x_19 <= 12
d292: z2_6_20 = 0 -> x_6 - x_20 <= 13
d293: z2_6_21 = 0 -> x_6 - x_21 <= 14
d294: z2_6_22 = 0 -> x_6 - x_22 <= 15
d295: z2_6_23 = 0 -> x_6 - x_23 <= 16
d296: z2_6_24 = 0 -> x_6 - x_24 <= 17
d297: z2_6_25 = 0 -> x_6 - x_25 <= 18
d298: z2_6_26 = 0 -> x_6 - x_26 <= 19
d299: z2_6_27 = 0 -> x_6 - x_27 <= 20
d300: z2_6_28 = 0 -> x_6 - x_28 <= 21
d301: z2_6_29 = 0 -> x_6 - x_29 <= 22
d302: z2_6_30 = 0 -> x_6 - x_30 <= 23
d303: z2_6_31 = 0 -> x_6 - x_31 <= 24
d304: z2_6_32 = 0 -> x_6 - x_32 <= 25
d305: z2_6_33 = 0 -> x_6 - x_33 <= 26
d306: z2_6_34 = 0 -> x_6 - x_34 <= 27
d307: z2_6_35 = 0 -> x_6 - x_35 <= 28
d308: z2_6_36 = 0 -> x_6 - x_36 <= 29
d309: z2_6_37 = 0 -> x_6 - x_37 <= 30
d310: z2_6_38 = 0 -> x_6 - x_38 <= 31
d311: z2_6_39 = 0 -> x_6 - x_39 <= 32
d312: z2_6_40 = 0 -> x_6 - x_40 <= 33
d313: z2_6_41 = 0 -> x_6 - x_41 <= 34
d314: z2_6_42 = 0 -> x_6 - x_42 <= 35
d315: z2_6_43 = 0 -> x_6 - x_43 <= 36
d316: z2_6_44 = 0 -> x_6 - x_44 <= 37
d317: z2_6_45 = 0 -> x_6 - x_45 <= 38
d318: z2_6_46 = 0 -> x_6 - x_46 <= 39
d319: z2_6_47 = 0 -> x_6 - x_47 <= 40
d320: z2_6_48 = 0 -> x_6 - x_48 <= 41
d321: z2_6_49 = 0 -> x_6 - x_49 <= 42
d322: z2_7_8 = 0 -> x_7 - x_8 <= 0
d323: z2_7_9 = 0 -> x_7 - x_9 <= 1
d324: z2_7_10 = 0 -> x_7 - x_10 <= 2
d325: z2_7_11 = 0 -> x_7 - x_11 <= 3
d326: z2_7_12 = 0 -> x_7 - x_12 <= 4
d327: z2_7_13 = 0 -> x_7 - x_13 <= 5
d328: z2_7_14 = 0 -> x_7 - x_14 <= 6
d329: z2_7_15 = 0 -> x_7 - x_15 <= 7
d330: z2_7_16 = 0 -> x_7 - x_16 <= 8
d331: z2_7_17 = 0 -> x_7 - x_17 <= 9
d332: z2_7_18 = 0 -> x_7 - x_18 <= 10
d333: z2_7_19 = 0 -> x_7 - x_19 <= 11
d334: z2_7_20 = 0 -> x_7 - x_20 <= 12
d335: z2_7_21 = 0 -> x_7 - x_21 <= 13
d336: z2_7_22 = 0 -> x_7 - x_22 <= 14
d337: z2_7_23 = 0 -> x_7 - x_23 <= 15
d338: z2_7_24 = 0 -> x_7 - x_24 <= 16
d339: z2_7_25 = 0 -> x_7 - x_25 <= 17
d340: z2_7_26 = 0 -> x_7 - x_26 <= 18
d341: z2_7_27 = 0 -> x_7 - x_27 <= 19
d342: z2_7_28 = 0 -> x_7 - x_28 <= 20
d343: z2_7_29 = 0 -> x_7 - x_29 <= 21
d344: z2_7_30 = 0 -> x_7 - x_30 <= 22
d345: z2_7_31 = 0 -> x_7 - x_31 <= 23
d346: z2_7_32 = 0 -> x_7 - x_32 <= 24
d347: z2_7_33 = 0 -> x_7 - x_33 <= 25
d348: z2_7_34 = 0 -> x_7 - x_34 <= 26
d349: z2_7_35 = 0 -> x_7 - x_35 <= 27
d350: z2_7_36 = 0 -> x_7 - x_36 <= 28
d351: z2_7_37 = 0 -> x_7 - x_37 <= 29
d352: z2_7_38 = 0 -> x_7 - x_38 <= 30
d353: z2_7_39 = 0 -> x_7 - x_39 <= 31
d354: z2_7_40 = 0 -> x_7 - x_40 <= 32
d355: z2_7_41 = 0 -> x_7 - x_41 <= 33
d356: z2_7_42 = 0 -> x_7 - x_42 <= 34
d357: z2_7_43 = 0 -> x_7 - x_43 <= 35
d358: z2_7_44 = 0 -> x_7 - x_44 <= 36
d359: z2_7_45 = 0 -> x_7 - x_45 <= 37
d360: z2_7_46 = 0 -> x_7 - x_46 <= 38
d361: z2_7_47 = 0 -> x_7 - x_47 <= 39
d362: z2_7_48 = 0 -> x_7 - x_48 <= 40
d363: z2_7_49 = 0 -> x_7 - x_49 <= 41
d364: z2_8_9 = 0 -> x_8 - x_9 <= 0
d365: z2_8_10 = 0 -> x_8 - x_10 <= 1
d366: z2_8_11 = 0 -> x_8 - x_11 <= 2
d367: z2_8_12 = 0 -> x_8 - x_12 <= 3
d368: z2_8_13 = 0 -> x_8 - x_13 <= 4
d369: z2_8_14 = 0 -> x_8 - x_14 <= 5
d370: z2_8_15 = 0 -> x_8 - x_15 <= 6
d371: z2_8_16 = 0 -> x_8 - x_16 <= 7
d372: z2_8_17 = 0 -> x_8 - x_17 <= 8
d373: z2_8_18 = 0 -> x_8 - x_18 <= 9
d374: z2_8_19 = 0 -> x_8 - x_19 <= 10
d375: z2_8_20 = 0 -> x_8 - x_20 <= 11
d376: z2_8_21 = 0 -> x_8 - x_21 <= 12
d377: z2_8_22 = 0 -> x_8 - x_22 <= 13
d378: z2_8_23 = 0 -> x_8 - x_23 <= 14
d379: z2_8_24 = 0 -> x_8 - x_24 <= 15
d380: z2_8_25 = 0 -> x_8 - x_25 <= 16
d381: z2_8_26 = 0 -> x_8 - x_26 <= 17
d382: z2_8_27 = 0 -> x_8 - x_27 <= 18
d383: z2_8_28 = 0 -> x_8 - x_28 <= 19
d384: z2_8_29 = 0 -> x_8 - x_29 <= 20
d385: z2_8_30 = 0 -> x_8 - x_30 <= 21
d386: z2_8_31 = 0 -> x_8 - x_31 <= 22
d387: z2_8_32 = 0 -> x_8 - x_32 <= 23
d388: z2_8_33 = 0 -> x_8 - x_33 <= 24
d389: z2_8_34 = 0 -> x_8 - x_34 <= 25
d390: z2_8_35 = 0 -> x_8 - x_35 <= 26
d391: z2_8_36 = 0 -> x_8 - x_36 <= 27
d392: z2_8_37 = 0 -> x_8 - x_37 <= 28
d393: z2_8_38 = 0 -> x_8 - x_38 <= 29
d394: z2_8_39 = 0 -> x_8 - x_39 <= 30
d395: z2_8_40 = 0 -> x_8 - x_40 <= 31
d396: z2_8_41 = 0 -> x_8 - x_41 <= 32
d397: z2_8_42 = 0 -> x_8 - x_42 <= 33
d398: z2_8_43 = 0 -> x_8 - x_43 <= 34
d399: z2_8_44 = 0 -> x_8 - x_44 <= 35
d400: z2_8_45 = 0 -> x_8 - x_45 <= 36
d401: z2_8_46 = 0 -> x_8 - x_46 <= 37
d402: z2_8_47 = 0 -> x_8 - x_47 <= 38
d403: z2_8_48 = 0 -> x_8 - x_48 <= 39
d404: z2_8_49 = 0 -> x_8 - x_49 <= 40
d405: z2_9_10 = 0 -> x_9 - x_10 <= 0
d406: z2_9_11 = 0 -> x_9 - x_11 <= 1
d407: z2_9_12 = 0 -> x_9 - x_12 <= 2
d408: z2_9_13 = 0 -> x_9 - x_13 <= 3
d409: z2_9_14 = 0 -> x_9 - x_14 <= 4
d410: z2_9_15 = 0 -> x_9 - x_15 <= 5
d411: z2_9_16 = 0 -> x_9 - x_16 <= 6
d412: z2_9_17 = 0 -> x_9 - x_17 <= 7
d413: z2_9_18 = 0 -> x_9 - x_18 <= 8
d414: z2_9_19 = 0 -> x_9 - x_19 <= 9
d415: z2_9_20 = 0 -> x_9 - x_20 <= 10
d416: z2_9_21 = 0 -> x_9 - x_21 <= 11
d417: z2_9_22 = 0 -> x_9 - x_22 <= 12
d418: z2_9_23 = 0 -> x_9 - x_23 <= 13
d419: z2_9_24 = 0 -> x_9 - x_24 <= 14
d420: z2_9_25 = 0 -> x_9 - x_25 <= 15
d421: z2_9_26 = 0 -> x_9 - x_26 <= 16
d422: z2_9_27 = 0 -> x_9 - x_27 <= 17
d423: z2_9_28 = 0 -> x_9 - x_28 <= 18
d424: z2_9_29 = 0 -> x_9 - x_29 <= 19
d425: z2_9_30 = 0 -> x_9 - x_30 <= 20
d426: z2_9_31 = 0 -> x_9 - x_31 <= 21
d427: z2_9_32 = 0 -> x_9 - x_32 <= 22
d428: z2_9_33 = 0 -> x_9 - x_33 <= 23
d429: z2_9_34 = 0 -> x_9 - x_34 <= 24
d430: z2_9_35 = 0 -> x_9 - x_35 <= 25
d431: z2_9_36 = 0 -> x_9 - x_36 <= 26
d432: z2_9_37 = 0 -> x_9 - x_37 <= 27
d433: z2_9_38 = 0 -> x_9 - x_38 <= 28
d434: z2_9_39 = 0 -> x_9 - x_39 <= 29
d435: z2_9_40 = 0 -> x_9 - x_40 <= 30
d436: z2_9_41 = 0 -> x_9 - x_41 <= 31
d437: z2_9_42 = 0 -> x_9 - x_42 <= 32
d438: z2_9_43 = 0 -> x_9 - x_43 <= 33
d439: z2_9_44 = 0 -> x_9 - x_44 <= 34
d440: z2_9_45 = 0 -> x_9 - x_45 <= 35
d441: z2_9_46 = 0 -> x_9 - x_46 <= 36
d442: z2_9_47 = 0 -> x_9 - x_47 <= 37
d443: z2_9_48 = 0 -> x_9 - x_48 <= 38
d444: z2_9_49 = 0 -> x_9 - x_49 <= 39
d445: z2_10_11 = 0 -> x_10 - x_11 <= 0
d446: z2_10_12 = 0 -> x_10 - x_12 <= 1
d447: z2_10_13 = 0 -> x_10 - x_13 <= 2
d448: z2_10_14 = 0 -> x_10 - x_14 <= 3
d449: z2_10_15 = 0 -> x_10 - x_15 <= 4
d450: z2_10_16 = 0 -> x_10 - x_16 <= 5
d451: z2_10_17 = 0 -> x_10 - x_17 <= 6
d452: z2_10_18 = 0 -> x_10 - x_18 <= 7
d453: z2_10_19 = 0 -> x_10 - x_19 <= 8
d454: z2_10_20 = 0 -> x_10 - x_20 <= 9
d455: z2_10_21 = 0 -> x_10 - x_21 <= 10
d456: z2_10_22 = 0 -> x_10 - x_22 <= 11
d457: z2_10_23 = 0 -> x_10 - x_23 <= 12
d458: z2_10_24 = 0 -> x_10 - x_24 <= 13
d459: z2_10_25 = 0 -> x_10 - x_25 <= 14
d460: z2_10_26 = 0 -> x_10 - x_26 <= 15
d461: z2_10_27 = 0 -> x_10 - x_27 <= 16
d462: z2_10_28 = 0 -> x_10 - x_28 <= 17
d463: z2_10_29 = 0 -> x_10 - x_29 <= 18
d464: z2_10_30 = 0 -> x_10 - x_30 <= 19
d465: z2_10_31 = 0 -> x_10 - x_31 <= 20
d466: z2_10_32 = 0 -> x_10 - x_32 <= 21
d467: z2_10_33 = 0 -> x_10 - x_33 <= 22
d468: z2_10_34 = 0 -> x_10 - x_34 <= 23
d469: z2_10_35 = 0 -> x_10 - x_35 <= 24
d470: z2_10_36 = 0 -> x_10 - x_36 <= 25
d471: z2_10_37 = 0 -> x_10 - x_37 <= 26
d472: z2_10_38 = 0 -> x_10 - x_38 <= 27
d473: z2_10_39 = 0 -> x_10 - x_39 <= 28
d474: z2_10_40 = 0 -> x_10 - x_40 <= 29
d475: z2_10_41 = 0 -> x_10 - x_41 <= 30
d476: z2_10_42 = 0 -> x_10 - x_42 <= 31
d477: z2_10_43 = 0 -> x_10 - x_43 <= 32
d478: z2_10_44 = 0 -> x_10 - x_44 <= 33
d479: z2_10_45 = 0 -> x_10 - x_45 <= 34
d480: z2_10_46 = 0 -> x_10 - x_46 <= 35
d481: z2_10_47 = 0 -> x_10 - x_47 <= 36
d482: z2_10_48 = 0 -> x_10 - x_48 <= 37
d483: z2_10_49 = 0 -> x_10 - x_49 <= 38
d484: z2_11_12 = 0 -> x_11 - x_12 <= 0
d485: z2_11_13 = 0 -> x_11 - x_13 <= 1
d486: z2_11_14 = 0 -> x_11 - x_14 <= 2
d487: z2_11_15 = 0 -> x_11 - x_15 <= 3
d488: z2_11_16 = 0 -> x_11 - x_16 <= 4
d489: z2_11_17 = 0 -> x_11 - x_17 <= 5
d490: z2_11_18 = 0 -> x_11 - x_18 <= 6
d491: z2_11_19 = 0 -> x_11 - x_19 <= 7
d492: z2_11_20 = 0 -> x_11 - x_20 <= 8
d493: z2_11_21 = 0 -> x_11 - x_21 <= 9
d494: z2_11_22 = 0 -> x_11 - x_22 <= 10
d495: z2_11_23 = 0 -> x_11 - x_23 <= 11
d496: z2_11_24 = 0 -> x_11 - x_24 <= 12
d497: z2_11_25 = 0 -> x_11 - x_25 <= 13
d498: z2_11_26 = 0 -> x_11 - x_26 <= 14
d499: z2_11_27 = 0 -> x_11 - x_27 <= 15
d500: z2_11_28 = 0 -> x_11 - x_28 <= 16
d501: z2_11_29 = 0 -> x_11 - x_29 <= 17
d502: z2_11_30 = 0 -> x_11 - x_30 <= 18
d503: z2_11_31 = 0 -> x_11 - x_31 <= 19
d504: z2_11_32 = 0 -> x_11 - x_32 <= 20
d505: z2_11_33 = 0 -> x_11 - x_33 <= 21
d506: z2_11_34 = 0 -> x_11 - x_34 <= 22
d507: z2_11_35 = 0 -> x_11 - x_35 <= 23
d508: z2_11_36 = 0 -> x_11 - x_36 <= 24
d509: z2_11_37 = 0 -> x_11 - x_37 <= 25
d510: z2_11_38 = 0 -> x_11 - x_38 <= 26
d511: z2_11_39 = 0 -> x_11 - x_39 <= 27
d512: z2_11_40 = 0 -> x_11 - x_40 <= 28
d513: z2_11_41 = 0 -> x_11 - x_41 <= 29
d514: z2_11_42 = 0 -> x_11 - x_42 <= 30
d515: z2_11_43 = 0 -> x_11 - x_43 <= 31
d516: z2_11_44 = 0 -> x_11 - x_44 <= 32
d517: z2_11_45 = 0 -> x_11 - x_45 <= 33
d518: z2_11_46 = 0 -> x_11 - x_46 <= 34
d519: z2_11_47 = 0 -> x_11 - x_47 <= 35
d520: z2_11_48 = 0 -> x_11 - x_48 <= 36
d521: z2_11_49 = 0 -> x_11 - x_49 <= 37
d522: z2_12_13 = 0 -> x_12 - x_13 <= 0
d523: z2_12_14 = 0 -> x_12 - x_14 <= 1
d524: z2_12_15 = 0 -> x_12 - x_15 <= 2
d525: z2_12_16 = 0 -> x_12 - x_16 <= 3
d526: z2_12_17 = 0 -> x_12 - x_17 <= 4
d527: z2_12_18 = 0 -> x_12 - x_18 <= 5
d528: z2_12_19 = 0 -> x_12 - x_19 <= 6
d529: z2_12_20 = 0 -> x_12 - x_20 <= 7
d530: z2_12_21 = 0 -> x_12 - x_21 <= 8
d531: z2_12_22 = 0 -> x_12 - x_22 <= 9
d532: z2_12_23 = 0 -> x_12 - x_23 <= 10
d533: z2_12_24 = 0 -> x_12 - x_24 <= 11
d534: z2_12_25 = 0 -> x_12 - x_25 <= 12
d535: z2_12_26 = 0 -> x_12 - x_26 <= 13
d536: z2_12_27 = 0 -> x_12 - x_27 <= 14
d537: z2_12_28 = 0 -> x_12 - x_28 <= 15
d538: z2_12_29 = 0 -> x_12 - x_29 <= 16
d539: z2_12_30 = 0 -> x_12 - x_30 <= 17
d540: z2_12_31 = 0 -> x_12 - x_31 <= 18
d541: z2_12_32 = 0 -> x_12 - x_32 <= 19
d542: z2_12_33 = 0 -> x_12 - x_33 <= 20
d543: z2_12_34 = 0 -> x_12 - x_34 <= 21
d544: z2_12_35 = 0 -> x_12 - x_35 <= 22
d545: z2_12_36 = 0 -> x_12 - x_36 <= 23
d546: z2_12_37 = 0 -> x_12 - x_37 <= 24
d547: z2_12_38 = 0 -> x_12 - x_38 <= 25
d548: z2_12_39 = 0 -> x_12 - x_39 <= 26
d549: z2_12_40 = 0 -> x_12 - x_40 <= 27
d550: z2_12_41 = 0 -> x_12 - x_41 <= 28
d551: z2_12_42 = 0 -> x_12 - x_42 <= 29
d552: z2_12_43 = 0 -> x_12 - x_43 <= 30
d553: z2_12_44 = 0 -> x_12 - x_44 <= 31
d554: z2_12_45 = 0 -> x_12 - x_45 <= 32
d555: z2_12_46 = 0 -> x_12 - x_46 <= 33
d556: z2_12_47 = 0 -> x_12 - x_47 <= 34
d557: z2_12_48 = 0 -> x_12 - x_48 <= 35
d558: z2_12_49 = 0 -> x_12 - x_49 <= 36
d559: z2_13_14 = 0 -> x_13 - x_14 <= 0
d560: z2_13_15 = 0 -> x_13 - x_15 <= 1
d561: z2_13_16 = 0 -> x_13 - x_16 <= 2
d562: z2_13_17 = 0 -> x_13 - x_17 <= 3
d563: z2_13_18 = 0 -> x_13 - x_18 <= 4
d564: z2_13_19 = 0 -> x_13 - x_19 <= 5
d565: z2_13_20 = 0 -> x_13 - x_20 <= 6
d566: z2_13_21 = 0 -> x_13 - x_21 <= 7
d567: z2_13_22 = 0 -> x_13 - x_22 <= 8
d568: z2_13_23 = 0 -> x_13 - x_23 <= 9
d569: z2_13_24 = 0 -> x_13 - x_24 <= 10
d570: z2_13_25 = 0 -> x_13 - x_25 <= 11
d571: z2_13_26 = 0 -> x_13 - x_26 <= 12
d572: z2_13_27 = 0 -> x_13 - x_27 <= 13
d573: z2_13_28 = 0 -> x_13 - x_28 <= 14
d574: z2_13_29 = 0 -> x_13 - x_29 <= 15
d575: z2_13_30 = 0 -> x_13 - x_30 <= 16
d576: z2_13_31 = 0 -> x_13 - x_31 <= 17
d577: z2_13_32 = 0 -> x_13 - x_32 <= 18
d578: z2_13_33 = 0 -> x_13 - x_33 <= 19
d579: z2_13_34 = 0 -> x_13 - x_34 <= 20
d580: z2_13_35 = 0 -> x_13 - x_35 <= 21
d581: z2_13_36 = 0 -> x_13 - x_36 <= 22
d582: z2_13_37 = 0 -> x_13 - x_37 <= 23
d583: z2_13_38 = 0 -> x_13 - x_38 <= 24
d584: z2_13_39 = 0 -> x_13 - x_39 <= 25
d585: z2_13_40 = 0 -> x_13 - x_40 <= 26
d586: z2_13_41 = 0 -> x_13 - x_41 <= 27
d587: z2_13_42 = 0 -> x_13 - x_42 <= 28
d588: z2_13_43 = 0 -> x_13 - x_43 <= 29
d589: z2_13_44 = 0 -> x_13 - x_44 <= 30
d590: z2_13_45 = 0 -> x_13 - x_45 <= 31
d591: z2_13_46 = 0 -> x_13 - x_46 <= 32
d592: z2_13_47 = 0 -> x_13 - x_47 <= 33
d593: z2_13_48 = 0 -> x_13 - x_48 <= 34
d594: z2_13_49 = 0 -> x_13 - x_49 <= 35
d595: z2_14_15 = 0 -> x_14 - x_15 <= 0
d596: z2_14_16 = 0 -> x_14 - x_16 <= 1
d597: z2_14_17 = 0 -> x_14 - x_17 <= 2
d598: z2_14_18 = 0 -> x_14 - x_18 <= 3
d599: z2_14_19 = 0 -> x_14 - x_19 <= 4
d600: z2_14_20 = 0 -> x_14 - x_20 <= 5
d601: z2_14_21 = 0 -> x_14 - x_21 <= 6
d602: z2_14_22 = 0 -> x_14 - x_22 <= 7
d603: z2_14_23 = 0 -> x_14 - x_23 <= 8
d604: z2_14_24 = 0 -> x_14 - x_24 <= 9
d605: z2_14_25 = 0 -> x_14 - x_25 <= 10
d606: z2_14_26 = 0 -> x_14 - x_26 <= 11
d607: z2_14_27 = 0 -> x_14 - x_27 <= 12
d608: z2_14_28 = 0 -> x_14 - x_28 <= 13
d609: z2_14_29 = 0 -> x_14 - x_29 <= 14
d610: z2_14_30 = 0 -> x_14 - x_30 <= 15
d611: z2_14_31 = 0 -> x_14 - x_31 <= 16
d612: z2_14_32 = 0 -> x_14 - x_32 <= 17
d613: z2_14_33 = 0 -> x_14 - x_33 <= 18
d614: z2_14_34 = 0 -> x_14 - x_34 <= 19
d615: z2_14_35 = 0 -> x_14 - x_35 <= 20
d616: z2_14_36 = 0 -> x_14 - x_36 <= 21
d617: z2_14_37 = 0 -> x_14 - x_37 <= 22
d618: z2_14_38 = 0 -> x_14 - x_38 <= 23
d619: z2_14_39 = 0 -> x_14 - x_39 <= 24
d620: z2_14_40 = 0 -> x_14 - x_40 <= 25
d621: z2_14_41 = 0 -> x_14 - x_41 <= 26
d622: z2_14_42 = 0 -> x_14 - x_42 <= 27
d623: z2_14_43 = 0 -> x_14 - x_43 <= 28
d624: z2_14_44 = 0 -> x_14 - x_44 <= 29
d625: z2_14_45 = 0 -> x_14 - x_45 <= 30
d626: z2_14_46 = 0 -> x_14 - x_46 <= 31
d627: z2_14_47 = 0 -> x_14 - x_47 <= 32
d628: z2_14_48 = 0 -> x_14 - x_48 <= 33
d629: z2_14_49 = 0 -> x_14 - x_49 <= 34
d630: z2_15_16 = 0 -> x_15 - x_16 <= 0
d631: z2_15_17 = 0 -> x_15 - x_17 <= 1
d632: z2_15_18 = 0 -> x_15 - x_18 <= 2
d633: z2_15_19 = 0 -> x_15 - x_19 <= 3
d634: z2_15_20 = 0 -> x_15 - x_20 <= 4
d635: z2_15_21 = 0 -> x_15 - x_21 <= 5
d636: z2_15_22 = 0 -> x_15 - x_22 <= 6
d637: z2_15_23 = 0 -> x_15 - x_23 <= 7
d638: z2_15_24 = 0 -> x_15 - x_24 <= 8
d639: z2_15_25 = 0 -> x_15 - x_25 <= 9
d640: z2_15_26 = 0 -> x_15 - x_26 <= 10
d641: z2_15_27 = 0 -> x_15 - x_27 <= 11
d642: z2_15_28 = 0 -> x_15 - x_28 <= 12
d643: z2_15_29 = 0 -> x_15 - x_29 <= 13
d644: z2_15_30 = 0 -> x_15 - x_30 <= 14
d645: z2_15_31 = 0 -> x_15 - x_31 <= 15
d646: z2_15_32 = 0 -> x_15 - x_32 <= 16
d647: z2_15_33 = 0 -> x_15 - x_33 <= 17
d648: z2_15_34 = 0 -> x_15 - x_34 <= 18
d649: z2_15_35 = 0 -> x_15 - x_35 <= 19
d650: z2_15_36 = 0 -> x_15 - x_36 <= 20
d651: z2_15_37 = 0 -> x_15 - x_37 <= 21
d652: z2_15_38 = 0 -> x_15 - x_38 <= 22
d653: z2_15_39 = 0 -> x_15 - x_39 <= 23
d654: z2_15_40 = 0 -> x_15 - x_40 <= 24
d655: z2_15_41 = 0 -> x_15 - x_41 <= 25
d656: z2_15_42 = 0 -> x_15 - x_42 <= 26
d657: z2_15_43 = 0 -> x_15 - x_43 <= 27
d658: z2_15_44 = 0 -> x_15 - x_44 <= 28
d659: z2_15_45 = 0 -> x_15 - x_45 <= 29
d660: z2_15_46 = 0 -> x_15 - x_46 <= 30
d661: z2_15_47 = 0 -> x_15 - x_47 <= 31
d662: z2_15_48 = 0 -> x_15 - x_48 <= 32
d663: z2_15_49 = 0 -> x_15 - x_49 <= 33
d664: z2_16_17 = 0 -> x_16 - x_17 <= 0
d665: z2_16_18 = 0 -> x_16 - x_18 <= 1
d666: z2_16_19 = 0 -> x_16 - x_19 <= 2
d667: z2_16_20 = 0 -> x_16 - x_20 <= 3
d668: z2_16_21 = 0 -> x_16 - x_21 <= 4
d669: z2_16_22 = 0 -> x_16 - x_22 <= 5
d670: z2_16_23 = 0 -> x_16 - x_23 <= 6
d671: z2_16_24 = 0 -> x_16 - x_24 <= 7
d672: z2_16_25 = 0 -> x_16 - x_25 <= 8
d673: z2_16_26 = 0 -> x_16 - x_26 <= 9
d674: z2_16_27 = 0 -> x_16 - x_27 <= 10
d675: z2_16_28 = 0 -> x_16 - x_28 <= 11
d676: z2_16_29 = 0 -> x_16 - x_29 <= 12
d677: z2_16_30 = 0 -> x_16 - x_30 <= 13
d678: z2_16_31 = 0 -> x_16 - x_31 <= 14
d679: z2_16_32 = 0 -> x_16 - x_32 <= 15
d680: z2_16_33 = 0 -> x_16 - x_33 <= 16
d681: z2_16_34 = 0 -> x_16 - x_34 <= 17
d682: z2_16_35 = 0 -> x_16 - x_35 <= 18
d683: z2_16_36 = 0 -> x_16 - x_36 <= 19
d684: z2_16_37 = 0 -> x_16 - x_37 <= 20
d685: z2_16_38 = 0 -> x_16 - x_38 <= 21
d686: z2_16_39 = 0 -> x_16 - x_39 <= 22
d687: z2_16_40 = 0 -> x_16 - x_40 <= 23
d688: z2_16_41 = 0 -> x_16 - x_41 <= 24
d689: z2_16_42 = 0 -> x_16 - x_42 <= 25
d690: z2_16_43 = 0 -> x_16 - x_43 <= 26
d691: z2_16_44 = 0 -> x_16 - x_44 <= 27
d692: z2_16_45 = 0 -> x_16 - x_45 <= 28
d693: z2_16_46 = 0 -> x_16 - x_46 <= 29
d694: z2_16_47 = 0 -> x_16 - x_47 <= 30
d695: z2_16_48 = 0 -> x_16 - x_48 <= 31
d696: z2_16_49 = 0 -> x_16 - x_49 <= 32
d697: z2_17_18 = 0 -> x_17 - x_18 <= 0
d698: z2_17_19 = 0 -> x_17 - x_19 <= 1
d699: z2_17_20 = 0 -> x_17 - x_20 <= 2
d700: z2_17_21 = 0 -> x_17 - x_21 <= 3
d701: z2_17_22 = 0 -> x_17 - x_22 <= 4
d702: z2_17_23 = 0 -> x_17 - x_23 <= 5
d703: z2_17_24 = 0 -> x_17 - x_24 <= 6
d704: z2_17_25 = 0 -> x_17 - x_25 <= 7
d705: z2_17_26 = 0 -> x_17 - x_26 <= 8
d706: z2_17_27 = 0 -> x_17 - x_27 <= 9
d707: z2_17_28 = 0 -> x_17 - x_28 <= 10
d708: z2_17_29 = 0 -> x_17 - x_29 <= 11
d709: z2_17_30 = 0 -> x_17 - x_30 <= 12
d710: z2_17_31 = 0 -> x_17 - x_31 <= 13
d711: z2_17_32 = 0 -> x_17 - x_32 <= 14
d712: z2_17_33 = 0 -> x_17 - x_33 <= 15
d713: z2_17_34 = 0 -> x_17 - x_34 <= 16
d714: z2_17_35 = 0 -> x_17 - x_35 <= 17
d715: z2_17_36 = 0 -> x_17 - x_36 <= 18
d716: z2_17_37 = 0 -> x_17 - x_37 <= 19
d717: z2_17_38 = 0 -> x_17 - x_38 <= 20
d718: z2_17_39 = 0 -> x_17 - x_39 <= 21
d719: z2_17_40 = 0 -> x_17 - x_40 <= 22
d720: z2_17_41 = 0 -> x_17 - x_41 <= 23
d721: z2_17_42 = 0 -> x_17 - x_42 <= 24
d722: z2_17_43 = 0 -> x_17 - x_43 <= 25
d723: z2_17_44 = 0 -> x_17 - x_44 <= 26
d724: z2_17_45 = 0 -> x_17 - x_45 <= 27
d725: z2_17_46 = 0 -> x_17 - x_46 <= 28
d726: z2_17_47 = 0 -> x_17 - x_47 <= 29
d727: z2_17_48 = 0 -> x_17 - x_48 <= 30
d728: z2_17_49 = 0 -> x_17 - x_49 <= 31
d729: z2_18_19 = 0 -> x_18 - x_19 <= 0
d730: z2_18_20 = 0 -> x_18 - x_20 <= 1
d731: z2_18_21 = 0 -> x_18 - x_21 <= 2
d732: z2_18_22 = 0 -> x_18 - x_22 <= 3
d733: z2_18_23 = 0 -> x_18 - x_23 <= 4
d734: z2_18_24 = 0 -> x_18 - x_24 <= 5
d735: z2_18_25 = 0 -> x_18 - x_25 <= 6
d736: z2_18_26 = 0 -> x_18 - x_26 <= 7
d737: z2_18_27 = 0 -> x_18 - x_27 <= 8
d738: z2_18_28 = 0 -> x_18 - x_28 <= 9
d739: z2_18_29 = 0 -> x_18 - x_29 <= 10
d740: z2_18_30 = 0 -> x_18 - x_30 <= 11
d741: z2_18_31 = 0 -> x_18 - x_31 <= 12
d742: z2_18_32 = 0 -> x_18 - x_32 <= 13
d743: z2_18_33 = 0 -> x_18 - x_33 <= 14
d744: z2_18_34 = 0 -> x_18 - x_34 <= 15
d745: z2_18_35 = 0 -> x_18 - x_35 <= 16
d746: z2_18_36 = 0 -> x_18 - x_36 <= 17
d747: z2_18_37 = 0 -> x_18 - x_37 <= 18
d748: z2_18_38 = 0 -> x_18 - x_38 <= 19
d749: z2_18_39 = 0 -> x_18 - x_39 <= 20
d750: z2_18_40 = 0 -> x_18 - x_40 <= 21
d751: z2_18_41 = 0 -> x_18 - x_41 <= 22
d752: z2_18_42 = 0 -> x_18 - x_42 <= 23
d753: z2_18_43 = 0 -> x_18 - x_43 <= 24
d754: z2_18_44 = 0 -> x_18 - x_44 <= 25
d755: z2_18_45 = 0 -> x_18 - x_45 <= 26
d756: z2_18_46 = 0 -> x_18 - x_46 <= 27
d757: z2_18_47 = 0 -> x_18 - x_47 <= 28
d758: z2_18_48 = 0 -> x_18 - x_48 <= 29
d759: z2_18_49 = 0 -> x_18 - x_49 <= 30
d760: z2_19_20 = 0 -> x_19 - x_20 <= 0
d761: z2_19_21 = 0 -> x_19 - x_21 <= 1
d762: z2_19_22 = 0 -> x_19 - x_22 <= 2
d763: z2_19_23 = 0 -> x_19 - x_23 <= 3
d764: z2_19_24 = 0 -> x_19 - x_24 <= 4
d765: z2_19_25 = 0 -> x_19 - x_25 <= 5
d766: z2_19_26 = 0 -> x_19 - x_26 <= 6
d767: z2_19_27 = 0 -> x_19 - x_27 <= 7
d768: z2_19_28 = 0 -> x_19 - x_28 <= 8
d769: z2_19_29 = 0 -> x_19 - x_29 <= 9
d770: z2_19_30 = 0 -> x_19 - x_30 <= 10
d771: z2_19_31 = 0 -> x_19 - x_31 <= 11
d772: z2_19_32 = 0 -> x_19 - x_32 <= 12
d773: z2_19_33 = 0 -> x_19 - x_33 <= 13
d774: z2_19_34 = 0 -> x_19 - x_34 <= 14
d775: z2_19_35 = 0 -> x_19 - x_35 <= 15
d776: z2_19_36 = 0 -> x_19 - x_36 <= 16
d777: z2_19_37 = 0 -> x_19 - x_37 <= 17
d778: z2_19_38 = 0 -> x_19 - x_38 <= 18
d779: z2_19_39 = 0 -> x_19 - x_39 <= 19
d780: z2_19_40 = 0 -> x_19 - x_40 <= 20
d781: z2_19_41 = 0 -> x_19 - x_41 <= 21
d782: z2_19_42 = 0 -> x_19 - x_42 <= 22
d783: z2_19_43 = 0 -> x_19 - x_43 <= 23
d784: z2_19_44 = 0 -> x_19 - x_44 <= 24
d785: z2_19_45 = 0 -> x_19 - x_45 <= 25
d786: z2_19_46 = 0 -> x_19 - x_46 <= 26
d787: z2_19_47 = 0 -> x_19 - x_47 <= 27
d788: z2_19_48 = 0 -> x_19 - x_48 <= 28
d789: z2_19_49 = 0 -> x_19 - x_49 <= 29
d790: z2_20_21 = 0 -> x_20 - x_21 <= 0
d791: z2_20_22 = 0 -> x_20 - x_22 <= 1
d792: z2_20_23 = 0 -> x_20 - x_23 <= 2
d793: z2_20_24 = 0 -> x_20 - x_24 <= 3
d794: z2_20_25 = 0 -> x_20 - x_25 <= 4
d795: z2_20_26 = 0 -> x_20 - x_26 <= 5
d796: z2_20_27 = 0 -> x_20 - x_27 <= 6
d797: z2_20_28 = 0 -> x_20 - x_28 <= 7
d798: z2_20_29 = 0 -> x_20 - x_29 <= 8
d799: z2_20_30 = 0 -> x_20 - x_30 <= 9
d800: z2_20_31 = 0 -> x_20 - x_31 <= 10
d801: z2_20_32 = 0 -> x_20 - x_32 <= 11
d802: z2_20_33 = 0 -> x_20 - x_33 <= 12
d803: z2_20_34 = 0 -> x_20 - x_34 <= 13
d804: z2_20_35 = 0 -> x_20 - x_35 <= 14
d805: z2_20_36 = 0 -> x_20 - x_36 <= 15
d806: z2_20_37 = 0 -> x_20 - x_37 <= 16
d807: z2_20_38 = 0 -> x_20 - x_38 <= 17
d808: z2_20_39 = 0 -> x_20 - x_39 <= 18
d809: z2_20_40 = 0 -> x_20 - x_40 <= 19
d810: z2_20_41 = 0 -> x_20 - x_41 <= 20
d811: z2_20_42 = 0 -> x_20 - x_42 <= 21
d812: z2_20_43 = 0 -> x_20 - x_43 <= 22
d813: z2_20_44 = 0 -> x_20 - x_44 <= 23
d814: z2_20_45 = 0 -> x_20 - x_45 <= 24
d815: z2_20_46 = 0 -> x_20 - x_46 <= 25
d816: z2_20_47 = 0 -> x_20 - x_47 <= 26
d817: z2_20_48 = 0 -> x_20 - x_48 <= 27
d818: z2_20_49 = 0 -> x_20 - x_49 <= 28
d819: z2_21_22 = 0 -> x_21 - x_22 <= 0
d820: z2_21_23 = 0 -> x_21 - x_23 <= 1
d821: z2_21_24 = 0 -> x_21 - x_24 <= 2
d822: z2_21_25 = 0 -> x_21 - x_25 <= 3
d823: z2_21_26 = 0 -> x_21 - x_26 <= 4
d824: z2_21_27 = 0 -> x_21 - x_27 <= 5
d825: z2_21_28 = 0 -> x_21 - x_28 <= 6
d826: z2_21_29 = 0 -> x_21 - x_29 <= 7
d827: z2_21_30 = 0 -> x_21 - x_30 <= 8
d828: z2_21_31 = 0 -> x_21 - x_31 <= 9
d829: z2_21_32 = 0 -> x_21 - x_32 <= 10
d830: z2_21_33 = 0 -> x_21 - x_33 <= 11
d831: z2_21_34 = 0 -> x_21 - x_34 <= 12
d832: z2_21_35 = 0 -> x_21 - x_35 <= 13
d833: z2_21_36 = 0 -> x_21 - x_36 <= 14
d834: z2_21_37 = 0 -> x_21 - x_37 <= 15
d835: z2_21_38 = 0 -> x_21 - x_38 <= 16
d836: z2_21_39 = 0 -> x_21 - x_39 <= 17
d837: z2_21_40 = 0 -> x_21 - x_40 <= 18
d838: z2_21_41 = 0 -> x_21 - x_41 <= 19
d839: z2_21_42 = 0 -> x_21 - x_42 <= 20
d840: z2_21_43 = 0 -> x_21 - x_43 <= 21
d841: z2_21_44 = 0 -> x_21 - x_44 <= 22
d842: z2_21_45 = 0 -> x_21 - x_45 <= 23
d843: z2_21_46 = 0 -> x_21 - x_46 <= 24
d844: z2_21_47 = 0 -> x_21 - x_47 <= 25
d845: z2_21_48 = 0 -> x_21 - x_48 <= 26
d846: z2_21_49 = 0 -> x_21 - x_49 <= 27
d847: z2_22_23 = 0 -> x_22 - x_23 <= 0
d848: z2_22_24 = 0 -> x_22 - x_24 <= 1
d849: z2_22_25 = 0 -> x_22 - x_25 <= 2
d850: z2_22_26 = 0 -> x_22 - x_26 <= 3
d851: z2_22_27 = 0 -> x_22 - x_27 <= 4
d852: z2_22_28 = 0 -> x_22 - x_28 <= 5
d853: z2_22_29 = 0 -> x_22 - x_29 <= 6
d854: z2_22_30 = 0 -> x_22 - x_30 <= 7
d855: z2_22_31 = 0 -> x_22 - x_31 <= 8
d856: z2_22_32 = 0 -> x_22 - x_32 <= 9
d857: z2_22_33 = 0 -> x_22 - x_33 <= 10
d858: z2_22_34 = 0 -> x_22 - x_34 <= 11
d859: z2_22_35 = 0 -> x_22 - x_35 <= 12
d860: z2_22_36 = 0 -> x_22 - x_36 <= 13
d861: z2_22_37 = 0 -> x_22 - x_37 <= 14
d862: z2_22_38 = 0 -> x_22 - x_38 <= 15
d863: z2_22_39 = 0 -> x_22 - x_39 <= 16
d864: z2_22_40 = 0 -> x_22 - x_40 <= 17
d865: z2_22_41 = 0 -> x_22 - x_41 <= 18
d866: z2_22_42 = 0 -> x_22 - x_42 <= 19
d867: z2_22_43 = 0 -> x_22 - x_43 <= 20
d868: z2_22_44 = 0 -> x_22 - x_44 <= 21
d869: z2_22_45 = 0 -> x_22 - x_45 <= 22
d870: z2_22_46 = 0 -> x_22 - x_46 <= 23
d871: z2_22_47 = 0 -> x_22 - x_47 <= 24
d872: z2_22_48 = 0 -> x_22 - x_48 <= 25
d873: z2_22_49 = 0 -> x_22 - x_49 <= 26
d874: z2_23_24 = 0 -> x_23 - x_24 <= 0
d875: z2_23_25 = 0 -> x_23 - x_25 <= 1
d876: z2_23_26 = 0 -> x_23 - x_26 <= 2
d877: z2_23_27 = 0 -> x_23 - x_27 <= 3
d878: z2_23_28 = 0 -> x_23 - x_28 <= 4
d879: z2_23_29 = 0 -> x_23 - x_29 <= 5
d880: z2_23_30 = 0 -> x_23 - x_30 <= 6
d881: z2_23_31 = 0 -> x_23 - x_31 <= 7
d882: z2_23_32 = 0 -> x_23 - x_32 <= 8
d883: z2_23_33 = 0 -> x_23 - x_33 <= 9
d884: z2_23_34 = 0 -> x_23 - x_34 <= 10
d885: z2_23_35 = 0 -> x_23 - x_35 <= 11
d886: z2_23_36 = 0 -> x_23 - x_36 <= 12
d887: z2_23_37 = 0 -> x_23 - x_37 <= 13
d888: z2_23_38 = 0 -> x_23 - x_38 <= 14
d889: z2_23_39 = 0 -> x_23 - x_39 <= 15
d890: z2_23_40 = 0 -> x_23 - x_40 <= 16
d891: z2_23_41 = 0 -> x_23 - x_41 <= 17
d892: z2_23_42 = 0 -> x_23 - x_42 <= 18
d893: z2_23_43 = 0 -> x_23 - x_43 <= 19
d894: z2_23_44 = 0 -> x_23 - x_44 <= 20
d895: z2_23_45 = 0 -> x_23 - x_45 <= 21
d896: z2_23_46 = 0 -> x_23 - x_46 <= 22
d897: z2_23_47 = 0 -> x_23 - x_47 <= 23
d898: z2_23_48 = 0 -> x_23 - x_48 <= 24
d899: z2_23_49 = 0 -> x_23 - x_49 <= 25
d900: z2_24_25 = 0 -> x_24 - x_25 <= 0
d901: z2_24_26 = 0 -> x_24 - x_26 <= 1
d902: z2_24_27 = 0 -> x_24 - x_27 <= 2
d903: z2_24_28 = 0 -> x_24 - x_28 <= 3
d904: z2_24_29 = 0 -> x_24 - x_29 <= 4
d905: z2_24_30 = 0 -> x_24 - x_30 <= 5
d906: z2_24_31 = 0 -> x_24 - x_31 <= 6
d907: z2_24_32 = 0 -> x_24 - x_32 <= 7
d908: z2_24_33 = 0 -> x_24 - x_33 <= 8
d909: z2_24_34 = 0 -> x_24 - x_34 <= 9
d910: z2_24_35 = 0 -> x_24 - x_35 <= 10
d911: z2_24_36 = 0 -> x_24 - x_36 <= 11
d912: z2_24_37 = 0 -> x_24 - x_37 <= 12
d913: z2_24_38 = 0 -> x_24 - x_38 <= 13
d914: z2_24_39 = 0 -> x_24 - x_39 <= 14
d915: z2_24_40 = 0 -> x_24 - x_40 <= 15
d916: z2_24_41 = 0 -> x_24 - x_41 <= 16
d917: z2_24_42 = 0 -> x_24 - x_42 <= 17
d918: z2_24_43 = 0 -> x_24 - x_43 <= 18
d919: z2_24_44 = 0 -> x_24 - x_44 <= 19
d920: z2_24_45 = 0 -> x_24 - x_45 <= 20
d921: z2_24_46 = 0 -> x_24 - x_46 <= 21
d922: z2_24_47 = 0 -> x_24 - x_47 <= 22
d923: z2_24_48 = 0 -> x_24 - x_48 <= 23
d924: z2_24_49 = 0 -> x_24 - x_49 <= 24
d925: z2_25_26 = 0 -> x_25 - x_26 <= 0
d926: z2_25_27 = 0 -> x_25 - x_27 <= 1
d927: z2_25_28 = 0 -> x_25 - x_28 <= 2
d928: z2_25_29 = 0 -> x_25 - x_29 <= 3
d929: z2_25_30 = 0 -> x_25 - x_30 <= 4
d930: z2_25_31 = 0 -> x_25 - x_31 <= 5
d931: z2_25_32 = 0 -> x_25 - x_32 <= 6
d932: z2_25_33 = 0 -> x_25 - x_33 <= 7
d933: z2_25_34 = 0 -> x_25 - x_34 <= 8
d934: z2_25_35 = 0 -> x_25 - x_35 <= 9
d935: z2_25_36 = 0 -> x_25 - x_36 <= 10
d936: z2_25_37 = 0 -> x_25 - x_37 <= 11
d937: z2_25_38 = 0 -> x_25 - x_38 <= 12
d938: z2_25_39 = 0 -> x_25 - x_39 <= 13
d939: z2_25_40 = 0 -> x_25 - x_40 <= 14
d940: z2_25_41 = 0 -> x_25 - x_41 <= 15
d941: z2_25_42 = 0 -> x_25 - x_42 <= 16
d942: z2_25_43 = 0 -> x_25 - x_43 <= 17
d943: z2_25_44 = 0 -> x_25 - x_44 <= 18
d944: z2_25_45 = 0 -> x_25 - x_45 <= 19
d945: z2_25_46 = 0 -> x_25 - x_46 <= 20
d946: z2_25_47 = 0 -> x_25 - x_47 <= 21
d947: z2_25_48 = 0 -> x_25 - x_48 <= 22
d948: z2_25_49 = 0 -> x_25 - x_49 <= 23
d949: z2_26_27 = 0 -> x_26 - x_27 <= 0
d950: z2_26_28 = 0 -> x_26 - x_28 <= 1
d951: z2_26_29 = 0 -> x_26 - x_29 <= 2
d952: z2_26_30 = 0 -> x_26 - x_30 <= 3
d953: z2_26_31 = 0 -> x_26 - x_31 <= 4
d954: z2_26_32 = 0 -> x_26 - x_32 <= 5
d955: z2_26_33 = 0 -> x_26 - x_33 <= 6
d956: z2_26_34 = 0 -> x_26 - x_34 <= 7
d957: z2_26_35 = 0 -> x_26 - x_35 <= 8
d958: z2_26_36 = 0 -> x_26 - x_36 <= 9
d959: z2_26_37 = 0 -> x_26 - x_37 <= 10
d960: z2_26_38 = 0 -> x_26 - x_38 <= 11
d961: z2_26_39 = 0 -> x_26 - x_39 <= 12
d962: z2_26_40 = 0 -> x_26 - x_40 <= 13
d963: z2_26_41 = 0 -> x_26 - x_41 <= 14
d964: z2_26_42 = 0 -> x_26 - x_42 <= 15
d965: z2_26_43 = 0 -> x_26 - x_43 <= 16
d966: z2_26_44 = 0 -> x_26 - x_44 <= 17
d967: z2_26_45 = 0 -> x_26 - x_45 <= 18
d968: z2_26_46 = 0 -> x_26 - x_46 <= 19
d969: z2_26_47 = 0 -> x_26 - x_47 <= 20
d970: z2_26_48 = 0 -> x_26 - x_48 <= 21
d971: z2_26_49 = 0 -> x_26 - x_49 <= 22
d972: z2_27_28 = 0 -> x_27 - x_28 <= 0
d973: z2_27_29 = 0 -> x_27 - x_29 <= 1
d974: z2_27_30 = 0 -> x_27 - x_30 <= 2
d975: z2_27_31 = 0 -> x_27 - x_31 <= 3
d976: z2_27_32 = 0 -> x_27 - x_32 <= 4
d977: z2_27_33 = 0 -> x_27 - x_33 <= 5
d978: z2_27_34 = 0 -> x_27 - x_34 <= 6
d979: z2_27_35 = 0 -> x_27 - x_35 <= 7
d980: z2_27_36 = 0 -> x_27 - x_36 <= 8
d981: z2_27_37 = 0 -> x_27 - x_37 <= 9
d982: z2_27_38 = 0 -> x_27 - x_38 <= 10
d983: z2_27_39 = 0 -> x_27 - x_39 <= 11
d984: z2_27_40 = 0 -> x_27 - x_40 <= 12
d985: z2_27_41 = 0 -> x_27 - x_41 <= 13
d986: z2_27_42 = 0 -> x_27 - x_42 <= 14
d987: z2_27_43 = 0 -> x_27 - x_43 <= 15
d988: z2_27_44 = 0 -> x_27 - x_44 <= 16
d989: z2_27_45 = 0 -> x_27 - x_45 <= 17
d990: z2_27_46 = 0 -> x_27 - x_46 <= 18
d991: z2_27_47 = 0 -> x_27 - x_47 <= 19
d992: z2_27_48 = 0 -> x_27 - x_48 <= 20
d993: z2_27_49 = 0 -> x_27 - x_49 <= 21
d994: z2_28_29 = 0 -> x_28 - x_29 <= 0
d995: z2_28_30 = 0 -> x_28 - x_30 <= 1
d996: z2_28_31 = 0 -> x_28 - x_31 <= 2
d997: z2_28_32 = 0 -> x_28 - x_32 <= 3
d998: z2_28_33 = 0 -> x_28 - x_33 <= 4
d999: z2_28_34 = 0 -> x_28 - x_34 <= 5
d1000: z2_28_35 = 0 -> x_28 - x_35 <= 6
d1001: z2_28_36 = 0 -> x_28 - x_36 <= 7
d1002: z2_28_37 = 0 -> x_28 - x_37 <= 8
d1003: z2_28_38 = 0 -> x_28 - x_38 <= 9
d1004: z2_28_39 = 0 -> x_28 - x_39 <= 10
d1005: z2_28_40 = 0 -> x_28 - x_40 <= 11
d1006: z2_28_41 = 0 -> x_28 - x_41 <= 12
d1007: z2_28_42 = 0 -> x_28 - x_42 <= 13
d1008: z2_28_43 = 0 -> x_28 - x_43 <= 14
d1009: z2_28_44 = 0 -> x_28 - x_44 <= 15
d1010: z2_28_45 = 0 -> x_28 - x_45 <= 16
d1011: z2_28_46 = 0 -> x_28 - x_46 <= 17
d1012: z2_28_47 = 0 -> x_28 - x_47 <= 18
d1013: z2_28_48 = 0 -> x_28 - x_48 <= 19
d1014: z2_28_49 = 0 -> x_28 - x_49 <= 20
d1015: z2_29_30 = 0 -> x_29 - x_30 <= 0
d1016: z2_29_31 = 0 -> x_29 - x_31 <= 1
d1017: z2_29_32 = 0 -> x_29 - x_32 <= 2
d1018: z2_29_33 = 0 -> x_29 - x_33 <= 3
d1019: z2_29_34 = 0 -> x_29 - x_34 <= 4
d1020: z2_29_35 = 0 -> x_29 - x_35 <= 5
d1021: z2_29_36 = 0 -> x_29 - x_36 <= 6
d1022: z2_29_37 = 0 -> x_29 - x_37 <= 7
d1023: z2_29_38 = 0 -> x_29 - x_38 <= 8
d1024: z2_29_39 = 0 -> x_29 - x_39 <= 9
d1025: z2_29_40 = 0 -> x_29 - x_40 <= 10
d1026: z2_29_41 = 0 -> x_29 - x_41 <= 11
d1027: z2_29_42 = 0 -> x_29 - x_42 <= 12
d1028: z2_29_43 = 0 -> x_29 - x_43 <= 13
d1029: z2_29_44 = 0 -> x_29 - x_44 <= 14
d1030: z2_29_45 = 0 -> x_29 - x_45 <= 15
d1031: z2_29_46 = 0 -> x_29 - x_46 <= 16
d1032: z2_29_47 = 0 -> x_29 - x_47 <= 17
d1033: z2_29_48 = 0 -> x_29 - x_48 <= 18
d1034: z2_29_49 = 0 -> x_29 - x_49 <= 19
d1035: z2_30_31 = 0 -> x_30 - x_31 <= 0
d1036: z2_30_32 = 0 -> x_30 - x_32 <= 1
d1037: z2_30_33 = 0 -> x_30 - x_33 <= 2
d1038: z2_30_34 = 0 -> x_30 - x_34 <= 3
d1039: z2_30_35 = 0 -> x_30 - x_35 <= 4
d1040: z2_30_36 = 0 -> x_30 - x_36 <= 5
d1041: z2_30_37 = 0 -> x_30 - x_37 <= 6
d1042: z2_30_38 = 0 -> x_30 - x_38 <= 7
d1043: z2_30_39 = 0 -> x_30 - x_39 <= 8
d1044: z2_30_40 = 0 -> x_30 - x_40 <= 9
d1045: z2_30_41 = 0 -> x_30 - x_41 <= 10
d1046: z2_30_42 = 0 -> x_30 - x_42 <= 11
d1047: z2_30_43 = 0 -> x_30 - x_43 <= 12
d1048: z2_30_44 = 0 -> x_30 - x_44 <= 13
d1049: z2_30_45 = 0 -> x_30 - x_45 <= 14
d1050: z2_30_46 = 0 -> x_30 - x_46 <= 15
d1051: z2_30_47 = 0 -> x_30 - x_47 <= 16
d1052: z2_30_48 = 0 -> x_30 - x_48 <= 17
d1053: z2_30_49 = 0 -> x_30 - x_49 <= 18
d1054: z2_31_32 = 0 -> x_31 - x_32 <= 0
d1055: z2_31_33 = 0 -> x_31 - x_33 <= 1
d1056: z2_31_34 = 0 -> x_31 - x_34 <= 2
d1057: z2_31_35 = 0 -> x_31 - x_35 <= 3
d1058: z2_31_36 = 0 -> x_31 - x_36 <= 4
d1059: z2_31_37 = 0 -> x_31 - x_37 <= 5
d1060: z2_31_38 = 0 -> x_31 - x_38 <= 6
d1061: z2_31_39 = 0 -> x_31 - x_39 <= 7
d1062: z2_31_40 = 0 -> x_31 - x_40 <= 8
d1063: z2_31_41 = 0 -> x_31 - x_41 <= 9
d1064: z2_31_42 = 0 -> x_31 - x_42 <= 10
d1065: z2_31_43 = 0 -> x_31 - x_43 <= 11
d1066: z2_31_44 = 0 -> x_31 - x_44 <= 12
d1067: z2_31_45 = 0 -> x_31 - x_45 <= 13
d1068: z2_31_46 = 0 -> x_31 - x_46 <= 14
d1069: z2_31_47 = 0 -> x_31 - x_47 <= 15
d1070: z2_31_48 = 0 -> x_31 - x_48 <= 16
d1071: z2_31_49 = 0 -> x_31 - x_49 <= 17
d1072: z2_32_33 = 0 -> x_32 - x_33 <= 0
d1073: z2_32_34 = 0 -> x_32 - x_34 <= 1
d1074: z2_32_35 = 0 -> x_32 - x_35 <= 2
d1075: z2_32_36 = 0 -> x_32 - x_36 <= 3
d1076: z2_32_37 = 0 -> x_32 - x_37 <= 4
d1077: z2_32_38 = 0 -> x_32 - x_38 <= 5
d1078: z2_32_39 = 0 -> x_32 - x_39 <= 6
d1079: z2_32_40 = 0 -> x_32 - x_40 <= 7
d1080: z2_32_41 = 0 -> x_32 - x_41 <= 8
d1081: z2_32_42 = 0 -> x_32 - x_42 <= 9
d1082: z2_32_43 = 0 -> x_32 - x_43 <= 10
d1083: z2_32_44 = 0 -> x_32 - x_44 <= 11
d1084: z2_32_45 = 0 -> x_32 - x_45 <= 12
d1085: z2_32_46 = 0 -> x_32 - x_46 <= 13
d1086: z2_32_47 = 0 -> x_32 - x_47 <= 14
d1087: z2_32_48 = 0 -> x_32 - x_48 <= 15
d1088: z2_32_49 = 0 -> x_32 - x_49 <= 16
d1089: z2_33_34 = 0 -> x_33 - x_34 <= 0
d1090: z2_33_35 = 0 -> x_33 - x_35 <= 1
d1091: z2_33_36 = 0 -> x_33 - x_36 <= 2
d1092: z2_33_37 = 0 -> x_33 - x_37 <= 3
d1093: z2_33_38 = 0 -> x_33 - x_38 <= 4
d1094: z2_33_39 = 0 -> x_33 - x_39 <= 5
d1095: z2_33_40 = 0 -> x_33 - x_40 <= 6
d1096: z2_33_41 = 0 -> x_33 - x_41 <= 7
d1097: z2_33_42 = 0 -> x_33 - x_42 <= 8
d1098: z2_33_43 = 0 -> x_33 - x_43 <= 9
d1099: z2_33_44 = 0 -> x_33 - x_44 <= 10
d1100: z2_33_45 = 0 -> x_33 - x_45 <= 11
d1101: z2_33_46 = 0 -> x_33 - x_46 <= 12
d1102: z2_33_47 = 0 -> x_33 - x_47 <= 13
d1103: z2_33_48 = 0 -> x_33 - x_48 <= 14
d1104: z2_33_49 = 0 -> x_33 - x_49 <= 15
d1105: z2_34_35 = 0 -> x_34 - x_35 <= 0
d1106: z2_34_36 = 0 -> x_34 - x_36 <= 1
d1107: z2_34_37 = 0 -> x_34 - x_37 <= 2
d1108: z2_34_38 = 0 -> x_34 - x_38 <= 3
d1109: z2_34_39 = 0 -> x_34 - x_39 <= 4
d1110: z2_34_40 = 0 -> x_34 - x_40 <= 5
d1111: z2_34_41 = 0 -> x_34 - x_41 <= 6
d1112: z2_34_42 = 0 -> x_34 - x_42 <= 7
d1113: z2_34_43 = 0 -> x_34 - x_43 <= 8
d1114: z2_34_44 = 0 -> x_34 - x_44 <= 9
d1115: z2_34_45 = 0 -> x_34 - x_45 <= 10
d1116: z2_34_46 = 0 -> x_34 - x_46 <= 11
d1117: z2_34_47 = 0 -> x_34 - x_47 <= 12
d1118: z2_34_48 = 0 -> x_34 - x_48 <= 13
d1119: z2_34_49 = 0 -> x_34 - x_49 <= 14
d1120: z2_35_36 = 0 -> x_35 - x_36 <= 0
d1121: z2_35_37 = 0 -> x_35 - x_37 <= 1
d1122: z2_35_38 = 0 -> x_35 - x_38 <= 2
d1123: z2_35_39 = 0 -> x_35 - x_39 <= 3
d1124: z2_35_40 = 0 -> x_35 - x_40 <= 4
d1125: z2_35_41 = 0 -> x_35 - x_41 <= 5
d1126: z2_35_42 = 0 -> x_35 - x_42 <= 6
d1127: z2_35_43 = 0 -> x_35 - x_43 <= 7
d1128: z2_35_44 = 0 -> x_35 - x_44 <= 8
d1129: z2_35_45 = 0 -> x_35 - x_45 <= 9
d1130: z2_35_46 = 0 -> x_35 - x_46 <= 10
d1131: z2_35_47 = 0 -> x_35 - x_47 <= 11
d1132: z2_35_48 = 0 -> x_35 - x_48 <= 12
d1133: z2_35_49 = 0 -> x_35 - x_49 <= 13
d1134: z2_36_37 = 0 -> x_36 - x_37 <= 0
d1135: z2_36_38 = 0 -> x_36 - x_38 <= 1
d1136: z2_36_39 = 0 -> x_36 - x_39 <= 2
d1137: z2_36_40 = 0 -> x_36 - x_40 <= 3
d1138: z2_36_41 = 0 -> x_36 - x_41 <= 4
d1139: z2_36_42 = 0 -> x_36 - x_42 <= 5
d1140: z2_36_43 = 0 -> x_36 - x_43 <= 6
d1141: z2_36_44 = 0 -> x_36 - x_44 <= 7
d1142: z2_36_45 = 0 -> x_36 - x_45 <= 8
d1143: z2_36_46 = 0 -> x_36 - x_46 <= 9
d1144: z2_36_47 = 0 -> x_36 - x_47 <= 10
d1145: z2_36_48 = 0 -> x_36 - x_48 <= 11
d1146: z2_36_49 = 0 -> x_36 - x_49 <= 12
d1147: z2_37_38 = 0 -> x_37 - x_38 <= 0
d1148: z2_37_39 = 0 -> x_37 - x_39 <= 1
d1149: z2_37_40 = 0 -> x_37 - x_40 <= 2
d1150: z2_37_41 = 0 -> x_37 - x_41 <= 3
d1151: z2_37_42 = 0 -> x_37 - x_42 <= 4
d1152: z2_37_43 = 0 -> x_37 - x_43 <= 5
d1153: z2_37_44 = 0 -> x_37 - x_44 <= 6
d1154: z2_37_45 = 0 -> x_37 - x_45 <= 7
d1155: z2_37_46 = 0 -> x_37 - x_46 <= 8
d1156: z2_37_47 = 0 -> x_37 - x_47 <= 9
d1157: z2_37_48 = 0 -> x_37 - x_48 <= 10
d1158: z2_37_49 = 0 -> x_37 - x_49 <= 11
d1159: z2_38_39 = 0 -> x_38 - x_39 <= 0
d1160: z2_38_40 = 0 -> x_38 - x_40 <= 1
d1161: z2_38_41 = 0 -> x_38 - x_41 <= 2
d1162: z2_38_42 = 0 -> x_38 - x_42 <= 3
d1163: z2_38_43 = 0 -> x_38 - x_43 <= 4
d1164: z2_38_44 = 0 -> x_38 - x_44 <= 5
d1165: z2_38_45 = 0 -> x_38 - x_45 <= 6
d1166: z2_38_46 = 0 -> x_38 - x_46 <= 7
d1167: z2_38_47 = 0 -> x_38 - x_47 <= 8
d1168: z2_38_48 = 0 -> x_38 - x_48 <= 9
d1169: z2_38_49 = 0 -> x_38 - x_49 <= 10
d1170: z2_39_40 = 0 -> x_39 - x_40 <= 0
d1171: z2_39_41 = 0 -> x_39 - x_41 <= 1
d1172: z2_39_42 = 0 -> x_39 - x_42 <= 2
d1173: z2_39_43 = 0 -> x_39 - x_43 <= 3
d1174: z2_39_44 = 0 -> x_39 - x_44 <= 4
d1175: z2_39_45 = 0 -> x_39 - x_45 <= 5
d1176: z2_39_46 = 0 -> x_39 - x_46 <= 6
d1177: z2_39_47 = 0 -> x_39 - x_47 <= 7
d1178: z2_39_48 = 0 -> x_39 - x_48 <= 8
d1179: z2_39_49 = 0 -> x_39 - x_49 <= 9
d1180: z2_40_41 = 0 -> x_40 - x_41 <= 0
d1181: z2_40_42 = 0 -> x_40 - x_42 <= 1
d1182: z2_40_43 = 0 -> x_40 - x_43 <= 2
d1183: z2_40_44 = 0 -> x_40 - x_44 <= 3
d1184: z2_40_45 = 0 -> x_40 - x_45 <= 4
d1185: z2_40_46 = 0 -> x_40 - x_46 <= 5
d1186: z2_40_47 = 0 -> x_40 - x_47 <= 6
d1187: z2_40_48 = 0 -> x_40 - x_48 <= 7
d1188: z2_40_49 = 0 -> x_40 - x_49 <= 8
d1189: z2_41_42 = 0 -> x_41 - x_42 <= 0
d1190: z2_41_43 = 0 -> x_41 - x_43 <= 1
d1191: z2_41_44 = 0 -> x_41 - x_44 <= 2
d1192: z2_41_45 = 0 -> x_41 - x_45 <= 3
d1193: z2_41_46 = 0 -> x_41 - x_46 <= 4
d1194: z2_41_47 = 0 -> x_41 - x_47 <= 5
d1195: z2_41_48 = 0 -> x_41 - x_48 <= 6
d1196: z2_41_49 = 0 -> x_41 - x_49 <= 7
d1197: z2_42_43 = 0 -> x_42 - x_43 <= 0
d1198: z2_42_44 = 0 -> x_42 - x_44 <= 1
d1199: z2_42_45 = 0 -> x_42 - x_45 <= 2
d1200: z2_42_46 = 0 -> x_42 - x_46 <= 3
d1201: z2_42_47 = 0 -> x_42 - x_47 <= 4
d1202: z2_42_48 = 0 -> x_42 - x_48 <= 5
d1203: z2_42_49 = 0 -> x_42 - x_49 <= 6
d1204: z2_43_44 = 0 -> x_43 - x_44 <= 0
d1205: z2_43_45 = 0 -> x_43 - x_45 <= 1
d1206: z2_43_46 = 0 -> x_43 - x_46 <= 2
d1207: z2_43_47 = 0 -> x_43 - x_47 <= 3
d1208: z2_43_48 = 0 -> x_43 - x_48 <= 4
d1209: z2_43_49 = 0 -> x_43 - x_49 <= 5
d1210: z2_44_45 = 0 -> x_44 - x_45 <= 0
d1211: z2_44_46 = 0 -> x_44 - x_46 <= 1
d1212: z2_44_47 = 0 -> x_44 - x_47 <= 2
d1213: z2_44_48 = 0 -> x_44 - x_48 <= 3
d1214: z2_44_49 = 0 -> x_44 - x_49 <= 4
d1215: z2_45_46 = 0 -> x_45 - x_46 <= 0
d1216: z2_45_47 = 0 -> x_45 - x_47 <= 1
d1217: z2_45_48 = 0 -> x_45 - x_48 <= 2
d1218: z2_45_49 = 0 -> x_45 - x_49 <= 3
d1219: z2_46_47 = 0 -> x_46 - x_47 <= 0
d1220: z2_46_48 = 0 -> x_46 - x_48 <= 1
d1221: z2_46_49 = 0 -> x_46 - x_49 <= 2
d1222: z2_47_48 = 0 -> x_47 - x_48 <= 0
d1223: z2_47_49 = 0 -> x_47 - x_49 <= 1
d1224: z2_48_49 = 0 -> x_48 - x_49 <= 0
e0: z3_0_1 = 1 -> x_0 - x_1 >= 0
e1: z3_0_2 = 1 -> x_0 - x_2 >= -1
e2: z3_0_3 = 1 -> x_0 - x_3 >= -2
e3: z3_0_4 = 1 -> x_0 - x_4 >= -3
e4: z3_0_5 = 1 -> x_0 - x_5 >= -4
e5: z3_0_6 = 1 -> x_0 - x_6 >= -5
e6: z3_0_7 = 1 -> x_0 - x_7 >= -6
e7: z3_0_8 = 1 -> x_0 - x_8 >= -7
e8: z3_0_9 = 1 -> x_0 - x_9 >= -8
e9: z3_0_10 = 1 -> x_0 - x_10 >= -9
e10: z3_0_11 = 1 -> x_0 - x_11 >= -10
e11: z3_0_12 = 1 -> x_0 - x_12 >= -11
e12: z3_0_13 = 1 -> x_0 - x_13 >= -12
e13: z3_0_14 = 1 -> x_0 - x_14 >= -13
e14: z3_0_15 = 1 -> x_0 - x_15 >= -14
e15: z3_0_16 = 1 -> x_0 - x_16 >= -15
e16: z3_0_17 = 1 -> x_0 - x_17 >= -16
e17: z3_0_18 = 1 -> x_0 - x_18 >= -17
e18: z3_0_19 = 1 -> x_0 - x_19 >= -18
e19: z3_0_20 = 1 -> x_0 - x_20 >= -19
e20: z3_0_21 = 1 -> x_0 - x_21 >= -20
e21: z3_0_22 = 1 -> x_0 - x_22 >= -21
e22: z3_0_23 = 1 -> x_0 - x_23 >= -22
e23: z3_0_24 = 1 -> x_0 - x_24 >= -23
e24: z3_0_25 = 1 -> x_0 - x_25 >= -24
e25: z3_0_26 = 1 -> x_0 - x_26 >= -25
e26: z3_0_27 = 1 -> x_0 - x_27 >= -26
e27: z3_0_28 = 1 -> x_0 - x_28 >= -27
e28: z3_0_29 = 1 -> x_0 - x_29 >= -28
e29: z3_0_30 = 1 -> x_0 - x_30 >= -29
e30: z3_0_31 = 1 -> x_0 - x_31 >= -30
e31: z3_0_32 = 1 -> x_0 - x_32 >= -31
e32: z3_0_33 = 1 -> x_0 - x_33 >= -32
e33: z3_0_34 = 1 -> x_0 - x_34 >= -33
e34: z3_0_35 = 1 -> x_0 - x_35 >= -34
e35: z3_0_36 = 1 -> x_0 - x_36 >= -35
e36: z3_0_37 = 1 -> x_0 - x_37 >= -36
e37: z3_0_38 = 1 -> x_0 - x_38 >= -37
e38: z3_0_39 = 1 -> x_0 - x_39 >= -38
e39: z3_0_40 = 1 -> x_0 - x_40 >= -39
e40: z3_0_41 = 1 -> x_0 - x_41 >= -40
e41: z3_0_42 = 1 -> x_0 - x_42 >= -41
e42: z3_0_43 = 1 -> x_0 - x_43 >= -42
e43: z3_0_44 = 1 -> x_0 - x_44 >= -43
e44: z3_0_45 = 1 -> x_0 - x_45 >= -44
e45: z3_0_46 = 1 -> x_0 - x_46 >= -45
e46: z3_0_47 = 1 -> x_0 - x_47 >= -46
e47: z3_0_48 = 1 -> x_0 - x_48 >= -47
e48: z3_0_49 = 1 -> x_0 - x_49 >= -48
e49: z3_1_2 = 1 -> x_1 - x_2 >= 0
e50: z3_1_3 = 1 -> x_1 - x_3 >= -1
e51: z3_1_4 = 1 -> x_1 - x_4 >= -2
e52: z3_1_5 = 1 -> x_1 - x_5 >= -3
e53: z3_1_6 = 1 -> x_1 - x_6 >= -4
e54: z3_1_7 = 1 -> x_1 - x_7 >= -5
e55: z3_1_8 = 1 -> x_1 - x_8 >= -6
e56: z3_1_9 = 1 -> x_1 - x_9 >= -7
e57: z3_1_10 = 1 -> x_1 - x_10 >= -8
e58: z3_1_11 = 1 -> x_1 - x_11 >= -9
e59: z3_1_12 = 1 -> x_1 - x_12 >= -10
e60: z3_1_13 = 1 -> x_1 - x_13 >= -11
e61: z3_1_14 = 1 -> x_1 - x_14 >= -12
e62: z3_1_15 = 1 -> x_1 - x_15 >= -13
e63: z3_1_16 = 1 -> x_1 - x_16 >= -14
e64: z3_1_17 = 1 -> x_1 - x_17 >= -15
e65: z3_1_18 = 1 -> x_1 - x_18 >= -16
e66: z3_1_19 = 1 -> x_1 - x_19 >= -17
e67: z3_1_20 = 1 -> x_1 - x_20 >= -18
e68: z3_1_21 = 1 -> x_1 - x_21 >= -19
e69: z3_1_22 = 1 -> x_1 - x_22 >= -20
e70: z3_1_23 = 1 -> x_1 - x_23 >= -21
e71: z3_1_24 = 1 -> x_1 - x_24 >= -22
e72: z3_1_25 = 1 -> x_1 - x_25 >= -23
e73: z3_1_26 = 1 -> x_1 - x_26 >= -24
e74: z3_1_27 = 1 -> x_1 - x_27 >= -25
e75: z3_1_28 = 1 -> x_1 - x_28 >= -26
e76: z3_1_29 = 1 -> x_1 - x_29 >= -27
e77: z3_1_30 = 1 -> x_1 - x_30 >= -28
e78: z3_1_31 = 1 -> x_1 - x_31 >= -29
e79: z3_1_32 = 1 -> x_1 - x_32 >= -30
e80: z3_1_33 = 1 -> x_1 - x_33 >= -31
e81: z3_1_34 = 1 -> x_1 - x_34 >= -32
e82: z3_1_35 = 1 -> x_1 - x_35 >= -33
e83: z3_1_36 = 1 -> x_1 - x_36 >= -34
e84: z3_1_37 = 1 -> x_1 - x_37 >= -35
e85: z3_1_38 = 1 -> x_1 - x_38 >= -36
e86: z3_1_39 = 1 -> x_1 - x_39 >= -37
e87: z3_1_40 = 1 -> x_1 - x_40 >= -38
e88: z3_1_41 = 1 -> x_1 - x_41 >= -39
e89: z3_1_42 = 1 -> x_1 - x_42 >= -40
e90: z3_1_43 = 1 -> x_1 - x_43 >= -41
e91: z3_1_44 = 1 -> x_1 - x_44 >= -42
e92: z3_1_45 = 1 -> x_1 - x_45 >= -43
e93: z3_1_46 = 1 -> x_1 - x_46 >= -44
e94: z3_1_47 = 1 -> x_1 - x_47 >= -45
e95: z3_1_48 = 1 -> x_1 - x_48 >= -46
e96: z3_1_49 = 1 -> x_1 - x_49 >= -47
e97: z3_2_3 = 1 -> x_2 - x_3 >= 0
e98: z3_2_4 = 1 -> x_2 - x_4 >= -1
e99: z3_2_5 = 1 -> x_2 - x_5 >= -2
e100: z3_2_6 = 1 -> x_2 - x_6 >= -3
e101: z3_2_7 = 1 -> x_2 - x_7 >= -4
e102: z3_2_8 = 1 -> x_2 - x_8 >= -5
e103: z3_2_9 = 1 -> x_2 - x_9 >= -6
e104: z3_2_10 = 1 -> x_2 - x_10 >= -7
e105: z3_2_11 = 1 -> x_2 - x_11 >= -8
e106: z3_2_12 = 1 -> x_2 - x_12 >= -9
e107: z3_2_13 = 1 -> x_2 - x_13 >= -10
e108: z3_2_14 = 1 -> x_2 - x_14 >= -11
e109: z3_2_15 = 1 -> x_2 - x_15 >= -12
e110: z3_2_16 = 1 -> x_2 - x_16 >= -13
e111: z3_2_17 = 1 -> x_2 - x_17 >= -14
e112: z3_2_18 = 1 -> x_2 - x_18 >= -15
e113: z3_2_19 = 1 -> x_2 - x_19 >= -16
e114: z3_2_20 = 1 -> x_2 - x_20 >= -17
e115: z3_2_21 = 1 -> x_2 - x_21 >= -18
e116: z3_2_22 = 1 -> x_2 - x_22 >= -19
e117: z3_2_23 = 1 -> x_2 - x_23 >= -20
e118: z3_2_24 = 1 -> x_2 - x_24 >= -21
e119: z3_2_25 = 1 -> x_2 - x_25 >= -22
e120: z3_2_26 = 1 -> x_2 - x_26 >= -23
e121: z3_2_27 = 1 -> x_2 - x_27 >= -24
e122: z3_2_28 = 1 -> x_2 - x_28 >= -25
e123: z3_2_29 = 1 -> x_2 - x_29 >= -26
e124: z3_2_30 = 1 -> x_2 - x_30 >= -27
e125: z3_2_31 = 1 -> x_2 - x_31 >= -28
e126: z3_2_32 = 1 -> x_2 - x_32 >= -29
e127: z3_2_33 = 1 -> x_2 - x_33 >= -30
e128: z3_2_34 = 1 -> x_2 - x_34 >= -31
e129: z3_2_35 = 1 -> x_2 - x_35 >= -32
e130: z3_2_36 = 1 -> x_2 - x_36 >= -33
e131: z3_2_37 = 1 -> x_2 - x_37 >= -34
e132: z3_2_38 = 1 -> x_2 - x_38 >= -35
e133: z3_2_39 = 1 -> x_2 - x_39 >= -36
e134: z3_2_40 = 1 -> x_2 - x_40 >= -37
e135: z3_2_41 = 1 -> x_2 - x_41 >= -38
e136: z3_2_42 = 1 -> x_2 - x_42 >= -39
e137: z3_2_43 = 1 -> x_2 - x_43 >= -40
e138: z3_2_44 = 1 -> x_2 - x_44 >= -41
e139: z3_2_45 = 1 -> x_2 - x_45 >= -42
e140: z3_2_46 = 1 -> x_2 - x_46 >= -43
e141: z3_2_47 = 1 -> x_2 - x_47 >= -44
e142: z3_2_48 = 1 -> x_2 - x_48 >= -45
e143: z3_2_49 = 1 -> x_2 - x_49 >= -46
e144: z3_3_4 = 1 -> x_3 - x_4 >= 0
e145: z3_3_5 = 1 -> x_3 - x_5 >= -1
e146: z3_3_6 = 1 -> x_3 - x_6 >= -2
e147: z3_3_7 = 1 -> x_3 - x_7 >= -3
e148: z3_3_8 = 1 -> x_3 - x_8 >= -4
e149: z3_3_9 = 1 -> x_3 - x_9 >= -5
e150: z3_3_10 = 1 -> x_3 - x_10 >= -6
e151: z3_3_11 = 1 -> x_3 - x_11 >= -7
e152: z3_3_12 = 1 -> x_3 - x_12 >= -8
e153: z3_3_13 = 1 -> x_3 - x_13 >= -9
e154: z3_3_14 = 1 -> x_3 - x_14 >= -10
e155: z3_3_15 = 1 -> x_3 - x_15 >= -11
e156: z3_3_16 = 1 -> x_3 - x_16 >= -12
e157: z3_3_17 = 1 -> x_3 - x_17 >= -13
e158: z3_3_18 = 1 -> x_3 - x_18 >= -14
e159: z3_3_19 = 1 -> x_3 - x_19 >= -15
e160: z3_3_20 = 1 -> x_3 - x_20 >= -16
e161: z3_3_21 = 1 -> x_3 - x_21 >= -17
e162: z3_3_22 = 1 -> x_3 - x_22 >= -18
e163: z3_3_23 = 1 -> x_3 - x_23 >= -19
e164: z3_3_24 = 1 -> x_3 - x_24 >= -20
e165: z3_3_25 = 1 -> x_3 - x_25 >= -21
e166: z3_3_26 = 1 -> x_3 - x_26 >= -22
e167: z3_3_27 = 1 -> x_3 - x_27 >= -23
e168: z3_3_28 = 1 -> x_3 - x_28 >= -24
e169: z3_3_29 = 1 -> x_3 - x_29 >= -25
e170: z3_3_30 = 1 -> x_3 - x_30 >= -26
e171: z3_3_31 = 1 -> x_3 - x_31 >= -27
e172: z3_3_32 = 1 -> x_3 - x_32 >= -28
e173: z3_3_33 = 1 -> x_3 - x_33 >= -29
e174: z3_3_34 = 1 -> x_3 - x_34 >= -30
e175: z3_3_35 = 1 -> x_3 - x_35 >= -31
e176: z3_3_36 = 1 -> x_3 - x_36 >= -32
e177: z3_3_37 = 1 -> x_3 - x_37 >= -33
e178: z3_3_38 = 1 -> x_3 - x_38 >= -34
e179: z3_3_39 = 1 -> x_3 - x_39 >= -35
e180: z3_3_40 = 1 -> x_3 - x_40 >= -36
e181: z3_3_41 = 1 -> x_3 - x_41 >= -37
e182: z3_3_42 = 1 -> x_3 - x_42 >= -38
e183: z3_3_43 = 1 -> x_3 - x_43 >= -39
e184: z3_3_44 = 1 -> x_3 - x_44 >= -40
e185: z3_3_45 = 1 -> x_3 - x_45 >= -41
e186: z3_3_46 = 1 -> x_3 - x_46 >= -42
e187: z3_3_47 = 1 -> x_3 - x_47 >= -43
e188: z3_3_48 = 1 -> x_3 - x_48 >= -44
e189: z3_3_49 = 1 -> x_3 - x_49 >= -45
e190: z3_4_5 = 1 -> x_4 - x_5 >= 0
e191: z3_4_6 = 1 -> x_4 - x_6 >= -1
e192: z3_4_7 = 1 -> x_4 - x_7 >= -2
e193: z3_4_8 = 1 -> x_4 - x_8 >= -3
e194: z3_4_9 = 1 -> x_4 - x_9 >= -4
e195: z3_4_10 = 1 -> x_4 - x_10 >= -5
e196: z3_4_11 = 1 -> x_4 - x_11 >= -6
e197: z3_4_12 = 1 -> x_4 - x_12 >= -7
e198: z3_4_13 = 1 -> x_4 - x_13 >= -8
e199: z3_4_14 = 1 -> x_4 - x_14 >= -9
e200: z3_4_15 = 1 -> x_4 - x_15 >= -10
e201: z3_4_16 = 1 -> x_4 - x_16 >= -11
e202: z3_4_17 = 1 -> x_4 - x_17 >= -12
e203: z3_4_18 = 1 -> x_4 - x_18 >= -13
e204: z3_4_19 = 1 -> x_4 - x_19 >= -14
e205: z3_4_20 = 1 -> x_4 - x_20 >= -15
e206: z3_4_21 = 1 -> x_4 - x_21 >= -16
e207: z3_4_22 = 1 -> x_4 - x_22 >= -17
e208: z3_4_23 = 1 -> x_4 - x_23 >= -18
e209: z3_4_24 = 1 -> x_4 - x_24 >= -19
e210: z3_4_25 = 1 -> x_4 - x_25 >= -20
e211: z3_4_26 = 1 -> x_4 - x_26 >= -21
e212: z3_4_27 = 1 -> x_4 - x_27 >= -22
e213: z3_4_28 = 1 -> x_4 - x_28 >= -23
e214: z3_4_29 = 1 -> x_4 - x_29 >= -24
e215: z3_4_30 = 1 -> x_4 - x_30 >= -25
e216: z3_4_31 = 1 -> x_4 - x_31 >= -26
e217: z3_4_32 = 1 -> x_4 - x_32 >= -27
e218: z3_4_33 = 1 -> x_4 - x_33 >= -28
e219: z3_4_34 = 1 -> x_4 - x_34 >= -29
e220: z3_4_35 = 1 -> x_4 - x_35 >= -30
e221: z3_4_36 = 1 -> x_4 - x_36 >= -31
e222: z3_4_37 = 1 -> x_4 - x_37 >= -32
e223: z3_4_38 = 1 -> x_4 - x_38 >= -33
e224: z3_4_39 = 1 -> x_4 - x_39 >= -34
e225: z3_4_40 = 1 -> x_4 - x_40 >= -35
e226: z3_4_41 = 1 -> x_4 - x_41 >= -36
e227: z3_4_42 = 1 -> x_4 - x_42 >= -37
e228: z3_4_43 = 1 -> x_4 - x_43 >= -38
e229: z3_4_44 = 1 -> x_4 - x_44 >= -39
e230: z3_4_45 = 1 -> x_4 - x_45 >= -40
e231: z3_4_46 = 1 -> x_4 - x_46 >= -41
e232: z3_4_47 = 1 -> x_4 - x_47 >= -42
e233: z3_4_48 = 1 -> x_4 - x_48 >= -43
e234: z3_4_49 = 1 -> x_4 - x_49 >= -44
e235: z3_5_6 = 1 -> x_5 - x_6 >= 0
e236: z3_5_7 = 1 -> x_5 - x_7 >= -1
e237: z3_5_8 = 1 -> x_5 - x_8 >= -2
e238: z3_5_9 = 1 -> x_5 - x_9 >= -3
e239: z3_5_10 = 1 -> x_5 - x_10 >= -4
e240: z3_5_11 = 1 -> x_5 - x_11 >= -5
e241: z3_5_12 = 1 -> x_5 - x_12 >= -6
e242: z3_5_13 = 1 -> x_5 - x_13 >= -7
e243: z3_5_14 = 1 -> x_5 - x_14 >= -8
e244: z3_5_15 = 1 -> x_5 - x_15 >= -9
e245: z3_5_16 = 1 -> x_5 - x_16 >= -10
e246: z3_5_17 = 1 -> x_5 - x_17 >= -11
e247: z3_5_18 = 1 -> x_5 - x_18 >= -12
e248: z3_5_19 = 1 -> x_5 - x_19 >= -13
e249: z3_5_20 = 1 -> x_5 - x_20 >= -14
e250: z3_5_21 = 1 -> x_5 - x_21 >= -15
e251: z3_5_22 = 1 -> x_5 - x_22 >= -16
e252: z3_5_23 = 1 -> x_5 - x_23 >= -17
e253: z3_5_24 = 1 -> x_5 - x_24 >= -18
e254: z3_5_25 = 1 -> x_5 - x_25 >= -19
e255: z3_5_26 = 1 -> x_5 - x_26 >= -20
e256: z3_5_27 = 1 -> x_5 - x_27 >= -21
e257: z3_5_28 = 1 -> x_5 - x_28 >= -22
e258: z3_5_29 = 1 -> x_5 - x_29 >= -23
e259: z3_5_30 = 1 -> x_5 - x_30 >= -24
e260: z3_5_31 = 1 -> x_5 - x_31 >= -25
e261: z3_5_32 = 1 -> x_5 - x_32 >= -26
e262: z3_5_33 = 1 -> x_5 - x_33 >= -27
e263: z3_5_34 = 1 -> x_5 - x_34 >= -28
e264: z3_5_35 = 1 -> x_5 - x_35 >= -29
e265: z3_5_36 = 1 -> x_5 - x_36 >= -30
e266: z3_5_37 = 1 -> x_5 - x_37 >= -31
e267: z3_5_38 = 1 -> x_5 - x_38 >= -32
e268: z3_5_39 = 1 -> x_5 - x_39 >= -33
e269: z3_5_40 = 1 -> x_5 - x_40 >= -34
e270: z3_5_41 = 1 -> x_5 - x_41 >= -35
e271: z3_5_42 = 1 -> x_5 - x_42 >= -36
e272: z3_5_43 = 1 -> x_5 - x_43 >= -37
e273: z3_5_44 = 1 -> x_5 - x_44 >= -38
e274: z3_5_45 = 1 -> x_5 - x_45 >= -39
e275: z3_5_46 = 1 -> x_5 - x_46 >= -40
e276: z3_5_47 = 1 -> x_5 - x_47 >= -41
e277: z3_5_48 = 1 -> x_5 - x_48 >= -42
e278: z3_5_49 = 1 -> x_5 - x_49 >= -43
e279: z3_6_7 = 1 -> x_6 - x_7 >= 0
e280: z3_6_8 = 1 -> x_6 - x_8 >= -1
e281: z3_6_9 = 1 -> x_6 - x_9 >= -2
e282: z3_6_10 = 1 -> x_6 - x_10 >= -3
e283: z3_6_11 = 1 -> x_6 - x_11 >= -4
e284: z3_6_12 = 1 -> x_6 - x_12 >= -5
e285: z3_6_13 = 1 -> x_6 - x_13 >= -6
e286: z3_6_14 = 1 -> x_6 - x_14 >= -7
e287: z3_6_15 = 1 -> x_6 - x_15 >= -8
e288: z3_6_16 = 1 -> x_6 - x_16 >= -9
e289: z3_6_17 = 1 -> x_6 - x_17 >= -10
e290: z3_6_18 = 1 -> x_6 - x_18 >= -11
e291: z3_6_19 = 1 -> x_6 - x_19 >= -12
e292: z3_6_20 = 1 -> x_6 - x_20 >= -13
e293: z3_6_21 = 1 -> x_6 - x_21 >= -14
e294: z3_6_22 = 1 -> x_6 - x_22 >= -15
e295: z3_6_23 = 1 -> x_6 - x_23 >= -16
e296: z3_6_24 = 1 -> x_6 - x_24 >= -17
e297: z3_6_25 = 1 -> x_6 - x_25 >= -18
e298: z3_6_26 = 1 -> x_6 - x_26 >= -19
e299: z3_6_27 = 1 -> x_6 - x_27 >= -20
e300: z3_6_28 = 1 -> x_6 - x_28 >= -21
e301: z3_6_29 = 1 -> x_6 - x_29 >= -22
e302: z3_6_30 = 1 -> x_6 - x_30 >= -23
e303: z3_6_31 = 1 -> x_6 - x_31 >= -24
e304: z3_6_32 = 1 -> x_6 - x_32 >= -25
e305: z3_6_33 = 1 -> x_6 - x_33 >= -26
e306: z3_6_34 = 1 -> x_6 - x_34 >= -27
e307: z3_6_35 = 1 -> x_6 - x_35 >= -28
e308: z3_6_36 = 1 -> x_6 - x_36 >= -29
e309: z3_6_37 = 1 -> x_6 - x_37 >= -30
e310: z3_6_38 = 1 -> x_6 - x_38 >= -31
e311: z3_6_39 = 1 -> x_6 - x_39 >= -32
e312: z3_6_40 = 1 -> x_6 - x_40 >= -33
e313: z3_6_41 = 1 -> x_6 - x_41 >= -34
e314: z3_6_42 = 1 -> x_6 - x_42 >= -35
e315: z3_6_43 = 1 -> x_6 - x_43 >= -36
e316: z3_6_44 = 1 -> x_6 - x_44 >= -37
e317: z3_6_45 = 1 -> x_6 - x_45 >= -38
e318: z3_6_46 = 1 -> x_6 - x_46 >= -39
e319: z3_6_47 = 1 -> x_6 - x_47 >= -40
e320: z3_6_48 = 1 -> x_6 - x_48 >= -41
e321: z3_6_49 = 1 -> x_6 - x_49 >= -42
e322: z3_7_8 = 1 -> x_7 - x_8 >= 0
e323: z3_7_9 = 1 -> x_7 - x_9 >= -1
e324: z3_7_10 = 1 -> x_7 - x_10 >= -2
e325: z3_7_11 = 1 -> x_7 - x_11 >= -3
e326: z3_7_12 = 1 -> x_7 - x_12 >= -4
e327: z3_7_13 = 1 -> x_7 - x_13 >= -5
e328: z3_7_14 = 1 -> x_7 - x_14 >= -6
e329: z3_7_15 = 1 -> x_7 - x_15 >= -7
e330: z3_7_16 = 1 -> x_7 - x_16 >= -8
e331: z3_7_17 = 1 -> x_7 - x_17 >= -9
e332: z3_7_18 = 1 -> x_7 - x_18 >= -10
e333: z3_7_19 = 1 -> x_7 - x_19 >= -11
e334: z3_7_20 = 1 -> x_7 - x_20 >= -12
e335: z3_7_21 = 1 -> x_7 - x_21 >= -13
e336: z3_7_22 = 1 -> x_7 - x_22 >= -14
e337: z3_7_23 = 1 -> x_7 - x_23 >= -15
e338: z3_7_24 = 1 -> x_7 - x_24 >= -16
e339: z3_7_25 = 1 -> x_7 - x_25 >= -17
e340: z3_7_26 = 1 -> x_7 - x_26 >= -18
e341: z3_7_27 = 1 -> x_7 - x_27 >= -19
e342: z3_7_28 = 1 -> x_7 - x_28 >= -20
e343: z3_7_29 = 1 -> x_7 - x_29 >= -21
e344: z3_7_30 = 1 -> x_7 - x_30 >= -22
e345: z3_7_31 = 1 -> x_7 - x_31 >= -23
e346: z3_7_32 = 1 -> x_7 - x_32 >= -24
e347: z3_7_33 = 1 -> x_7 - x_33 >= -25
e348: z3_7_34 = 1 -> x_7 - x_34 >= -26
e349: z3_7_35 = 1 -> x_7 - x_35 >= -27
e350: z3_7_36 = 1 -> x_7 - x_36 >= -28
e351: z3_7_37 = 1 -> x_7 - x_37 >= -29
e352: z3_7_38 = 1 -> x_7 - x_38 >= -30
e353: z3_7_39 = 1 -> x_7 - x_39 >= -31
e354: z3_7_40 = 1 -> x_7 - x_40 >= -32
e355: z3_7_41 = 1 -> x_7 - x_41 >= -33
e356: z3_7_42 = 1 -> x_7 - x_42 >= -34
e357: z3_7_43 = 1 -> x_7 - x_43 >= -35
e358: z3_7_44 = 1 -> x_7 - x_44 >= -36
e359: z3_7_45 = 1 -> x_7 - x_45 >= -37
e360: z3_7_46 = 1 -> x_7 - x_46 >= -38
e361: z3_7_47 = 1 -> x_7 - x_47 >= -39
e362: z3_7_48 = 1 -> x_7 - x_48 >= -40
e363: z3_7_49 = 1 -> x_7 - x_49 >= -41
e364: z3_8_9 = 1 -> x_8 - x_9 >= 0
e365: z3_8_10 = 1 -> x_8 - x_10 >= -1
e366: z3_8_11 = 1 -> x_8 - x_11 >= -2
e367: z3_8_12 = 1 -> x_8 - x_12 >= -3
e368: z3_8_13 = 1 -> x_8 - x_13 >= -4
e369: z3_8_14 = 1 -> x_8 - x_14 >= -5
e370: z3_8_15 = 1 -> x_8 - x_15 >= -6
e371: z3_8_16 = 1 -> x_8 - x_16 >= -7
e372: z3_8_17 = 1 -> x_8 - x_17 >= -8
e373: z3_8_18 = 1 -> x_8 - x_18 >= -9
e374: z3_8_19 = 1 -> x_8 - x_19 >= -10
e375: z3_8_20 = 1 -> x_8 - x_20 >= -11
e376: z3_8_21 = 1 -> x_8 - x_21 >= -12
e377: z3_8_22 = 1 -> x_8 - x_22 >= -13
e378: z3_8_23 = 1 -> x_8 - x_23 >= -14
e379: z3_8_24 = 1 -> x_8 - x_24 >= -15
e380: z3_8_25 = 1 -> x_8 - x_25 >= -16
e381: z3_8_26 = 1 -> x_8 - x_26 >= -17
e382: z3_8_27 = 1 -> x_8 - x_27 >= -18
e383: z3_8_28 = 1 -> x_8 - x_28 >= -19
e384: z3_8_29 = 1 -> x_8 - x_29 >= -20
e385: z3_8_30 = 1 -> x_8 - x_30 >= -21
e386: z3_8_31 = 1 -> x_8 - x_31 >= -22
e387: z3_8_32 = 1 -> x_8 - x_32 >= -23
e388: z3_8_33 = 1 -> x_8 - x_33 >= -24
e389: z3_8_34 = 1 -> x_8 - x_34 >= -25
e390: z3_8_35 = 1 -> x_8 - x_35 >= -26
e391: z3_8_36 = 1 -> x_8 - x_36 >= -27
e392: z3_8_37 = 1 -> x_8 - x_37 >= -28
e393: z3_8_38 = 1 -> x_8 - x_38 >= -29
e394: z3_8_39 = 1 -> x_8 - x_39 >= -30
e395: z3_8_40 = 1 -> x_8 - x_40 >= -31
e396: z3_8_41 = 1 -> x_8 - x_41 >= -32
e397: z3_8_42 = 1 -> x_8 - x_42 >= -33
e398: z3_8_43 = 1 -> x_8 - x_43 >= -34
e399: z3_8_44 = 1 -> x_8 - x_44 >= -35
e400: z3_8_45 = 1 -> x_8 - x_45 >= -36
e401: z3_8_46 = 1 -> x_8 - x_46 >= -37
e402: z3_8_47 = 1 -> x_8 - x_47 >= -38
e403: z3_8_48 = 1 -> x_8 - x_48 >= -39
e404: z3_8_49 = 1 -> x_8 - x_49 >= -40
e405: z3_9_10 = 1 -> x_9 - x_10 >= 0
e406: z3_9_11 = 1 -> x_9 - x_11 >= -1
e407: z3_9_12 = 1 -> x_9 - x_12 >= -2
e408: z3_9_13 = 1 -> x_9 - x_13 >= -3
e409: z3_9_14 = 1 -> x_9 - x_14 >= -4
e410: z3_9_15 = 1 -> x_9 - x_15 >= -5
e411: z3_9_16 = 1 -> x_9 - x_16 >= -6
e412: z3_9_17 = 1 -> x_9 - x_17 >= -7
e413: z3_9_18 = 1 -> x_9 - x_18 >= -8
e414: z3_9_19 = 1 -> x_9 - x_19 >= -9
e415: z3_9_20 = 1 -> x_9 - x_20 >= -10
e416: z3_9_21 = 1 -> x_9 - x_21 >= -11
e417: z3_9_22 = 1 -> x_9 - x_22 >= -12
e418: z3_9_23 = 1 -> x_9 - x_23 >= -13
e419: z3_9_24 = 1 -> x_9 - x_24 >= -14
e420: z3_9_25 = 1 -> x_9 - x_25 >= -15
e421: z3_9_26 = 1 -> x_9 - x_26 >= -16
e422: z3_9_27 = 1 -> x_9 - x_27 >= -17
e423: z3_9_28 = 1 -> x_9 - x_28 >= -18
e424: z3_9_29 = 1 -> x_9 - x_29 >= -19
e425: z3_9_30 = 1 -> x_9 - x_30 >= -20
e426: z3_9_31 = 1 -> x_9 - x_31 >= -21
e427: z3_9_32 = 1 -> x_9 - x_32 >= -22
e428: z3_9_33 = 1 -> x_9 - x_33 >= -23
e429: z3_9_34 = 1 -> x_9 - x_34 >= -24
e430: z3_9_35 = 1 -> x_9 - x_35 >= -25
e431: z3_9_36 = 1 -> x_9 - x_36 >= -26
e432: z3_9_37 = 1 -> x_9 - x_37 >= -27
e433: z3_9_38 = 1 -> x_9 - x_38 >= -28
e434: z3_9_39 = 1 -> x_9 - x_39 >= -29
e435: z3_9_40 = 1 -> x_9 - x_40 >= -30
e436: z3_9_41 = 1 -> x_9 - x_41 >= -31
e437: z3_9_42 = 1 -> x_9 - x_42 >= -32
e438: z3_9_43 = 1 -> x_9 - x_43 >= -33
e439: z3_9_44 = 1 -> x_9 - x_44 >= -34
e440: z3_9_45 = 1 -> x_9 - x_45 >= -35
e441: z3_9_46 = 1 -> x_9 - x_46 >= -36
e442: z3_9_47 = 1 -> x_9 - x_47 >= -37
e443: z3_9_48 = 1 -> x_9 - x_48 >= -38
e444: z3_9_49 = 1 -> x_9 - x_49 >= -39
e445: z3_10_11 = 1 -> x_10 - x_11 >= 0
e446: z3_10_12 = 1 -> x_10 - x_12 >= -1
e447: z3_10_13 = 1 -> x_10 - x_13 >= -2
e448: z3_10_14 = 1 -> x_10 - x_14 >= -3
e449: z3_10_15 = 1 -> x_10 - x_15 >= -4
e450: z3_10_16 = 1 -> x_10 - x_16 >= -5
e451: z3_10_17 = 1 -> x_10 - x_17 >= -6
e452: z3_10_18 = 1 -> x_10 - x_18 >= -7
e453: z3_10_19 = 1 -> x_10 - x_19 >= -8
e454: z3_10_20 = 1 -> x_10 - x_20 >= -9
e455: z3_10_21 = 1 -> x_10 - x_21 >= -10
e456: z3_10_22 = 1 -> x_10 - x_22 >= -11
e457: z3_10_23 = 1 -> x_10 - x_23 >= -12
e458: z3_10_24 = 1 -> x_10 - x_24 >= -13
e459: z3_10_25 = 1 -> x_10 - x_25 >= -14
e460: z3_10_26 = 1 -> x_10 - x_26 >= -15
e461: z3_10_27 = 1 -> x_10 - x_27 >= -16
e462: z3_10_28 = 1 -> x_10 - x_28 >= -17
e463: z3_10_29 = 1 -> x_10 - x_29 >= -18
e464: z3_10_30 = 1 -> x_10 - x_30 >= -19
e465: z3_10_31 = 1 -> x_10 - x_31 >= -20
e466: z3_10_32 = 1 -> x_10 - x_32 >= -21
e467: z3_10_33 = 1 -> x_10 - x_33 >= -22
e468: z3_10_34 = 1 -> x_10 - x_34 >= -23
e469: z3_10_35 = 1 -> x_10 - x_35 >= -24
e470: z3_10_36 = 1 -> x_10 - x_36 >= -25
e471: z3_10_37 = 1 -> x_10 - x_37 >= -26
e472: z3_10_38 = 1 -> x_10 - x_38 >= -27
e473: z3_10_39 = 1 -> x_10 - x_39 >= -28
e474: z3_10_40 = 1 -> x_10 - x_40 >= -29
e475: z3_10_41 = 1 -> x_10 - x_41 >= -30
e476: z3_10_42 = 1 -> x_10 - x_42 >= -31
e477: z3_10_43 = 1 -> x_10 - x_43 >= -32
e478: z3_10_44 = 1 -> x_10 - x_44 >= -33
e479: z3_10_45 = 1 -> x_10 - x_45 >= -34
e480: z3_10_46 = 1 -> x_10 - x_46 >= -35
e481: z3_10_47 = 1 -> x_10 - x_47 >= -36
e482: z3_10_48 = 1 -> x_10 - x_48 >= -37
e483: z3_10_49 = 1 -> x_10 - x_49 >= -38
e484: z3_11_12 = 1 -> x_11 - x_12 >= 0
e485: z3_11_13 = 1 -> x_11 - x_13 >= -1
e486: z3_11_14 = 1 -> x_11 - x_14 >= -2
e487: z3_11_15 = 1 -> x_11 - x_15 >= -3
e488: z3_11_16 = 1 -> x_11 - x_16 >= -4
e489: z3_11_17 = 1 -> x_11 - x_17 >= -5
e490: z3_11_18 = 1 -> x_11 - x_18 >= -6
e491: z3_11_19 = 1 -> x_11 - x_19 >= -7
e492: z3_11_20 = 1 -> x_11 - x_20 >= -8
e493: z3_11_21 = 1 -> x_11 - x_21 >= -9
e494: z3_11_22 = 1 -> x_11 - x_22 >= -10
e495: z3_11_23 = 1 -> x_11 - x_23 >= -11
e496: z3_11_24 = 1 -> x_11 - x_24 >= -12
e497: z3_11_25 = 1 -> x_11 - x_25 >= -13
e498: z3_11_26 = 1 -> x_11 - x_26 >= -14
e499: z3_11_27 = 1 -> x_11 - x_27 >= -15
e500: z3_11_28 = 1 -> x_11 - x_28 >= -16
e501: z3_11_29 = 1 -> x_11 - x_29 >= -17
e502: z3_11_30 = 1 -> x_11 - x_30 >= -18
e503: z3_11_31 = 1 -> x_11 - x_31 >= -19
e504: z3_11_32 = 1 -> x_11 - x_32 >= -20
e505: z3_11_33 = 1 -> x_11 - x_33 >= -21
e506: z3_11_34 = 1 -> x_11 - x_34 >= -22
e507: z3_11_35 = 1 -> x_11 - x_35 >= -23
e508: z3_11_36 = 1 -> x_11 - x_36 >= -24
e509: z3_11_37 = 1 -> x_11 - x_37 >= -25
e510: z3_11_38 = 1 -> x_11 - x_38 >= -26
e511: z3_11_39 = 1 -> x_11 - x_39 >= -27
e512: z3_11_40 = 1 -> x_11 - x_40 >= -28
e513: z3_11_41 = 1 -> x_11 - x_41 >= -29
e514: z3_11_42 = 1 -> x_11 - x_42 >= -30
e515: z3_11_43 = 1 -> x_11 - x_43 >= -31
e516: z3_11_44 = 1 -> x_11 - x_44 >= -32
e517: z3_11_45 = 1 -> x_11 - x_45 >= -33
e518: z3_11_46 = 1 -> x_11 - x_46 >= -34
e519: z3_11_47 = 1 -> x_11 - x_47 >= -35
e520: z3_11_48 = 1 -> x_11 - x_48 >= -36
e521: z3_11_49 = 1 -> x_11 - x_49 >= -37
e522: z3_12_13 = 1 -> x_12 - x_13 >= 0
e523: z3_12_14 = 1 -> x_12 - x_14 >= -1
e524: z3_12_15 = 1 -> x_12 - x_15 >= -2
e525: z3_12_16 = 1 -> x_12 - x_16 >= -3
e526: z3_12_17 = 1 -> x_12 - x_17 >= -4
e527: z3_12_18 = 1 -> x_12 - x_18 >= -5
e528: z3_12_19 = 1 -> x_12 - x_19 >= -6
e529: z3_12_20 = 1 -> x_12 - x_20 >= -7
e530: z3_12_21 = 1 -> x_12 - x_21 >= -8
e531: z3_12_22 = 1 -> x_12 - x_22 >= -9
e532: z3_12_23 = 1 -> x_12 - x_23 >= -10
e533: z3_12_24 = 1 -> x_12 - x_24 >= -11
e534: z3_12_25 = 1 -> x_12 - x_25 >= -12
e535: z3_12_26 = 1 -> x_12 - x_26 >= -13
e536: z3_12_27 = 1 -> x_12 - x_27 >= -14
e537: z3_12_28 = 1 -> x_12 - x_28 >= -15
e538: z3_12_29 = 1 -> x_12 - x_29 >= -16
e539: z3_12_30 = 1 -> x_12 - x_30 >= -17
e540: z3_12_31 = 1 -> x_12 - x_31 >= -18
e541: z3_12_32 = 1 -> x_12 - x_32 >= -19
e542: z3_12_33 = 1 -> x_12 - x_33 >= -20
e543: z3_12_34 = 1 -> x_12 - x_34 >= -21
e544: z3_12_35 = 1 -> x_12 - x_35 >= -22
e545: z3_12_36 = 1 -> x_12 - x_36 >= -23
e546: z3_12_37 = 1 -> x_12 - x_37 >= -24
e547: z3_12_38 = 1 -> x_12 - x_38 >= -25
e548: z3_12_39 = 1 -> x_12 - x_39 >= -26
e549: z3_12_40 = 1 -> x_12 - x_40 >= -27
e550: z3_12_41 = 1 -> x_12 - x_41 >= -28
e551: z3_12_42 = 1 -> x_12 - x_42 >= -29
e552: z3_12_43 = 1 -> x_12 - x_43 >= -30
e553: z3_12_44 = 1 -> x_12 - x_44 >= -31
e554: z3_12_45 = 1 -> x_12 - x_45 >= -32
e555: z3_12_46 = 1 -> x_12 - x_46 >= -33
e556: z3_12_47 = 1 -> x_12 - x_47 >= -34
e557: z3_12_48 = 1 -> x_12 - x_48 >= -35
e558: z3_12_49 = 1 -> x_12 - x_49 >= -36
e559: z3_13_14 = 1 -> x_13 - x_14 >= 0
e560: z3_13_15 = 1 -> x_13 - x_15 >= -1
e561: z3_13_16 = 1 -> x_13 - x_16 >= -2
e562: z3_13_17 = 1 -> x_13 - x_17 >= -3
e563: z3_13_18 = 1 -> x_13 - x_18 >= -4
e564: z3_13_19 = 1 -> x_13 - x_19 >= -5
e565: z3_13_20 = 1 -> x_13 - x_20 >= -6
e566: z3_13_21 = 1 -> x_13 - x_21 >= -7
e567: z3_13_22 = 1 -> x_13 - x_22 >= -8
e568: z3_13_23 = 1 -> x_13 - x_23 >= -9
e569: z3_13_24 = 1 -> x_13 - x_24 >= -10
e570: z3_13_25 = 1 -> x_13 - x_25 >= -11
e571: z3_13_26 = 1 -> x_13 - x_26 >= -12
e572: z3_13_27 = 1 -> x_13 - x_27 >= -13
e573: z3_13_28 = 1 -> x_13 - x_28 >= -14
e574: z3_13_29 = 1 -> x_13 - x_29 >= -15
e575: z3_13_30 = 1 -> x_13 - x_30 >= -16
e576: z3_13_31 = 1 -> x_13 - x_31 >= -17
e577: z3_13_32 = 1 -> x_13 - x_32 >= -18
e578: z3_13_33 = 1 -> x_13 - x_33 >= -19
e579: z3_13_34 = 1 -> x_13 - x_34 >= -20
e580: z3_13_35 = 1 -> x_13 - x_35 >= -21
e581: z3_13_36 = 1 -> x_13 - x_36 >= -22
e582: z3_13_37 = 1 -> x_13 - x_37 >= -23
e583: z3_13_38 = 1 -> x_13 - x_38 >= -24
e584: z3_13_39 = 1 -> x_13 - x_39 >= -25
e585: z3_13_40 = 1 -> x_13 - x_40 >= -26
e586: z3_13_41 = 1 -> x_13 - x_41 >= -27
e587: z3_13_42 = 1 -> x_13 - x_42 >= -28
e588: z3_13_43 = 1 -> x_13 - x_43 >= -29
e589: z3_13_44 = 1 -> x_13 - x_44 >= -30
e590: z3_13_45 = 1 -> x_13 - x_45 >= -31
e591: z3_13_46 = 1 -> x_13 - x_46 >= -32
e592: z3_13_47 = 1 -> x_13 - x_47 >= -33
e593: z3_13_48 = 1 -> x_13 - x_48 >= -34
e594: z3_13_49 = 1 -> x_13 - x_49 >= -35
e595: z3_14_15 = 1 -> x_14 - x_15 >= 0
e596: z3_14_16 = 1 -> x_14 - x_16 >= -1
e597: z3_14_17 = 1 -> x_14 - x_17 >= -2
e598: z3_14_18 = 1 -> x_14 - x_18 >= -3
e599: z3_14_19 = 1 -> x_14 - x_19 >= -4
e600: z3_14_20 = 1 -> x_14 - x_20 >= -5
e601: z3_14_21 = 1 -> x_14 - x_21 >= -6
e602: z3_14_22 = 1 -> x_14 - x_22 >= -7
e603: z3_14_23 = 1 -> x_14 - x_23 >= -8
e604: z3_14_24 = 1 -> x_14 - x_24 >= -9
e605: z3_14_25 = 1 -> x_14 - x_25 >= -10
e606: z3_14_26 = 1 -> x_14 - x_26 >= -11
e607: z3_14_27 = 1 -> x_14 - x_27 >= -12
e608: z3_14_28 = 1 -> x_14 - x_28 >= -13
e609: z3_14_29 = 1 -> x_14 - x_29 >= -14
e610: z3_14_30 = 1 -> x_14 - x_30 >= -15
e611: z3_14_31 = 1 -> x_14 - x_31 >= -16
e612: z3_14_32 = 1 -> x_14 - x_32 >= -17
e613: z3_14_33 = 1 -> x_14 - x_33 >= -18
e614: z3_14_34 = 1 -> x_14 - x_34 >= -19
e615: z3_14_35 = 1 -> x_14 - x_35 >= -20
e616: z3_14_36 = 1 -> x_14 - x_36 >= -21
e617: z3_14_37 = 1 -> x_14 - x_37 >= -22
e618: z3_14_38 = 1 -> x_14 - x_38 >= -23
e619: z3_14_39 = 1 -> x_14 - x_39 >= -24
e620: z3_14_40 = 1 -> x_14 - x_40 >= -25
e621: z3_14_41 = 1 -> x_14 - x_41 >= -26
e622: z3_14_42 = 1 -> x_14 - x_42 >= -27
e623: z3_14_43 = 1 -> x_14 - x_43 >= -28
e624: z3_14_44 = 1 -> x_14 - x_44 >= -29
e625: z3_14_45 = 1 -> x_14 - x_45 >= -30
e626: z3_14_46 = 1 -> x_14 - x_46 >= -31
e627: z3_14_47 = 1 -> x_14 - x_47 >= -32
e628: z3_14_48 = 1 -> x_14 - x_48 >= -33
e629: z3_14_49 = 1 -> x_14 - x_49 >= -34
e630: z3_15_16 = 1 -> x_15 - x_16 >= 0
e631: z3_15_17 = 1 -> x_15 - x_17 >= -1
e632: z3_15_18 = 1 -> x_15 - x_18 >= -2
e633: z3_15_19 = 1 -> x_15 - x_19 >= -3
e634: z3_15_20 = 1 -> x_15 - x_20 >= -4
e635: z3_15_21 = 1 -> x_15 - x_21 >= -5
e636: z3_15_22 = 1 -> x_15 - x_22 >= -6
e637: z3_15_23 = 1 -> x_15 - x_23 >= -7
e638: z3_15_24 = 1 -> x_15 - x_24 >= -8
e639: z3_15_25 = 1 -> x_15 - x_25 >= -9
e640: z3_15_26 = 1 -> x_15 - x_26 >= -10
e641: z3_15_27 = 1 -> x_15 - x_27 >= -11
e642: z3_15_28 = 1 -> x_15 - x_28 >= -12
e643: z3_15_29 = 1 -> x_15 - x_29 >= -13
e644: z3_15_30 = 1 -> x_15 - x_30 >= -14
e645: z3_15_31 = 1 -> x_15 - x_31 >= -15
e646: z3_15_32 = 1 -> x_15 - x_32 >= -16
e647: z3_15_33 = 1 -> x_15 - x_33 >= -17
e648: z3_15_34 = 1 -> x_15 - x_34 >= -18
e649: z3_15_35 = 1 -> x_15 - x_35 >= -19
e650: z3_15_36 = 1 -> x_15 - x_36 >= -20
e651: z3_15_37 = 1 -> x_15 - x_37 >= -21
e652: z3_15_38 = 1 -> x_15 - x_38 >= -22
e653: z3_15_39 = 1 -> x_15 - x_39 >= -23
e654: z3_15_40 = 1 -> x_15 - x_40 >= -24
e655: z3_15_41 = 1 -> x_15 - x_41 >= -25
e656: z3_15_42 = 1 -> x_15 - x_42 >= -26
e657: z3_15_43 = 1 -> x_15 - x_43 >= -27
e658: z3_15_44 = 1 -> x_15 - x_44 >= -28
e659: z3_15_45 = 1 -> x_15 - x_45 >= -29
e660: z3_15_46 = 1 -> x_15 - x_46 >= -30
e661: z3_15_47 = 1 -> x_15 - x_47 >= -31
e662: z3_15_48 = 1 -> x_15 - x_48 >= -32
e663: z3_15_49 = 1 -> x_15 - x_49 >= -33
e664: z3_16_17 = 1 -> x_16 - x_17 >= 0
e665: z3_16_18 = 1 -> x_16 - x_18 >= -1
e666: z3_16_19 = 1 -> x_16 - x_19 >= -2
e667: z3_16_20 = 1 -> x_16 - x_20 >= -3
e668: z3_16_21 = 1 -> x_16 - x_21 >= -4
e669: z3_16_22 = 1 -> x_16 - x_22 >= -5
e670: z3_16_23 = 1 -> x_16 - x_23 >= -6
e671: z3_16_24 = 1 -> x_16 - x_24 >= -7
e672: z3_16_25 = 1 -> x_16 - x_25 >= -8
e673: z3_16_26 = 1 -> x_16 - x_26 >= -9
e674: z3_16_27 = 1 -> x_16 - x_27 >= -10
e675: z3_16_28 = 1 -> x_16 - x_28 >= -11
e676: z3_16_29 = 1 -> x_16 - x_29 >= -12
e677: z3_16_30 = 1 -> x_16 - x_30 >= -13
e678: z3_16_31 = 1 -> x_16 - x_31 >= -14
e679: z3_16_32 = 1 -> x_16 - x_32 >= -15
e680: z3_16_33 = 1 -> x_16 - x_33 >= -16
e681: z3_16_34 = 1 -> x_16 - x_34 >= -17
e682: z3_16_35 = 1 -> x_16 - x_35 >= -18
e683: z3_16_36 = 1 -> x_16 - x_36 >= -19
e684: z3_16_37 = 1 -> x_16 - x_37 >= -20
e685: z3_16_38 = 1 -> x_16 - x_38 >= -21
e686: z3_16_39 = 1 -> x_16 - x_39 >= -22
e687: z3_16_40 = 1 -> x_16 - x_40 >= -23
e688: z3_16_41 = 1 -> x_16 - x_41 >= -24
e689: z3_16_42 = 1 -> x_16 - x_42 >= -25
e690: z3_16_43 = 1 -> x_16 - x_43 >= -26
e691: z3_16_44 = 1 -> x_16 - x_44 >= -27
e692: z3_16_45 = 1 -> x_16 - x_45 >= -28
e693: z3_16_46 = 1 -> x_16 - x_46 >= -29
e694: z3_16_47 = 1 -> x_16 - x_47 >= -30
e695: z3_16_48 = 1 -> x_16 - x_48 >= -31
e696: z3_16_49 = 1 -> x_16 - x_49 >= -32
e697: z3_17_18 = 1 -> x_17 - x_18 >= 0
e698: z3_17_19 = 1 -> x_17 - x_19 >= -1
e699: z3_17_20 = 1 -> x_17 - x_20 >= -2
e700: z3_17_21 = 1 -> x_17 - x_21 >= -3
e701: z3_17_22 = 1 -> x_17 - x_22 >= -4
e702: z3_17_23 = 1 -> x_17 - x_23 >= -5
e703: z3_17_24 = 1 -> x_17 - x_24 >= -6
e704: z3_17_25 = 1 -> x_17 - x_25 >= -7
e705: z3_17_26 = 1 -> x_17 - x_26 >= -8
e706: z3_17_27 = 1 -> x_17 - x_27 >= -9
e707: z3_17_28 = 1 -> x_17 - x_28 >= -10
e708: z3_17_29 = 1 -> x_17 - x_29 >= -11
e709: z3_17_30 = 1 -> x_17 - x_30 >= -12
e710: z3_17_31 = 1 -> x_17 - x_31 >= -13
e711: z3_17_32 = 1 -> x_17 - x_32 >= -14
e712: z3_17_33 = 1 -> x_17 - x_33 >= -15
e713: z3_17_34 = 1 -> x_17 - x_34 >= -16
e714: z3_17_35 = 1 -> x_17 - x_35 >= -17
e715: z3_17_36 = 1 -> x_17 - x_36 >= -18
e716: z3_17_37 = 1 -> x_17 - x_37 >= -19
e717: z3_17_38 = 1 -> x_17 - x_38 >= -20
e718: z3_17_39 = 1 -> x_17 - x_39 >= -21
e719: z3_17_40 = 1 -> x_17 - x_40 >= -22
e720: z3_17_41 = 1 -> x_17 - x_41 >= -23
e721: z3_17_42 = 1 -> x_17 - x_42 >= -24
e722: z3_17_43 = 1 -> x_17 - x_43 >= -25
e723: z3_17_44 = 1 -> x_17 - x_44 >= -26
e724: z3_17_45 = 1 -> x_17 - x_45 >= -27
e725: z3_17_46 = 1 -> x_17 - x_46 >= -28
e726: z3_17_47 = 1 -> x_17 - x_47 >= -29
e727: z3_17_48 = 1 -> x_17 - x_48 >= -30
e728: z3_17_49 = 1 -> x_17 - x_49 >= -31
e729: z3_18_19 = 1 -> x_18 - x_19 >= 0
e730: z3_18_20 = 1 -> x_18 - x_20 >= -1
e731: z3_18_21 = 1 -> x_18 - x_21 >= -2
e732: z3_18_22 = 1 -> x_18 - x_22 >= -3
e733: z3_18_23 = 1 -> x_18 - x_23 >= -4
e734: z3_18_24 = 1 -> x_18 - x_24 >= -5
e735: z3_18_25 = 1 -> x_18 - x_25 >= -6
e736: z3_18_26 = 1 -> x_18 - x_26 >= -7
e737: z3_18_27 = 1 -> x_18 - x_27 >= -8
e738: z3_18_28 = 1 -> x_18 - x_28 >= -9
e739: z3_18_29 = 1 -> x_18 - x_29 >= -10
e740: z3_18_30 = 1 -> x_18 - x_30 >= -11
e741: z3_18_31 = 1 -> x_18 - x_31 >= -12
e742: z3_18_32 = 1 -> x_18 - x_32 >= -13
e743: z3_18_33 = 1 -> x_18 - x_33 >= -14
e744: z3_18_34 = 1 -> x_18 - x_34 >= -15
e745: z3_18_35 = 1 -> x_18 - x_35 >= -16
e746: z3_18_36 = 1 -> x_18 - x_36 >= -17
e747: z3_18_37 = 1 -> x_18 - x_37 >= -18
e748: z3_18_38 = 1 -> x_18 - x_38 >= -19
e749: z3_18_39 = 1 -> x_18 - x_39 >= -20
e750: z3_18_40 = 1 -> x_18 - x_40 >= -21
e751: z3_18_41 = 1 -> x_18 - x_41 >= -22
e752: z3_18_42 = 1 -> x_18 - x_42 >= -23
e753: z3_18_43 = 1 -> x_18 - x_43 >= -24
e754: z3_18_44 = 1 -> x_18 - x_44 >= -25
e755: z3_18_45 = 1 -> x_18 - x_45 >= -26
e756: z3_18_46 = 1 -> x_18 - x_46 >= -27
e757: z3_18_47 = 1 -> x_18 - x_47 >= -28
e758: z3_18_48 = 1 -> x_18 - x_48 >= -29
e759: z3_18_49 = 1 -> x_18 - x_49 >= -30
e760: z3_19_20 = 1 -> x_19 - x_20 >= 0
e761: z3_19_21 = 1 -> x_19 - x_21 >= -1
e762: z3_19_22 = 1 -> x_19 - x_22 >= -2
e763: z3_19_23 = 1 -> x_19 - x_23 >= -3
e764: z3_19_24 = 1 -> x_19 - x_24 >= -4
e765: z3_19_25 = 1 -> x_19 - x_25 >= -5
e766: z3_19_26 = 1 -> x_19 - x_26 >= -6
e767: z3_19_27 = 1 -> x_19 - x_27 >= -7
e768: z3_19_28 = 1 -> x_19 - x_28 >= -8
e769: z3_19_29 = 1 -> x_19 - x_29 >= -9
e770: z3_19_30 = 1 -> x_19 - x_30 >= -10
e771: z3_19_31 = 1 -> x_19 - x_31 >= -11
e772: z3_19_32 = 1 -> x_19 - x_32 >= -12
e773: z3_19_33 = 1 -> x_19 - x_33 >= -13
e774: z3_19_34 = 1 -> x_19 - x_34 >= -14
e775: z3_19_35 = 1 -> x_19 - x_35 >= -15
e776: z3_19_36 = 1 -> x_19 - x_36 >= -16
e777: z3_19_37 = 1 -> x_19 - x_37 >= -17
e778: z3_19_38 = 1 -> x_19 - x_38 >= -18
e779: z3_19_39 = 1 -> x_19 - x_39 >= -19
e780: z3_19_40 = 1 -> x_19 - x_40 >= -20
e781: z3_19_41 = 1 -> x_19 - x_41 >= -21
e782: z3_19_42 = 1 -> x_19 - x_42 >= -22
e783: z3_19_43 = 1 -> x_19 - x_43 >= -23
e784: z3_19_44 = 1 -> x_19 - x_44 >= -24
e785: z3_19_45 = 1 -> x_19 - x_45 >= -25
e786: z3_19_46 = 1 -> x_19 - x_46 >= -26
e787: z3_19_47 = 1 -> x_19 - x_47 >= -27
e788: z3_19_48 = 1 -> x_19 - x_48 >= -28
e789: z3_19_49 = 1 -> x_19 - x_49 >= -29
e790: z3_20_21 = 1 -> x_20 - x_21 >= 0
e791: z3_20_22 = 1 -> x_20 - x_22 >= -1
e792: z3_20_23 = 1 -> x_20 - x_23 >= -2
e793: z3_20_24 = 1 -> x_20 - x_24 >= -3
e794: z3_20_25 = 1 -> x_20 - x_25 >= -4
e795: z3_20_26 = 1 -> x_20 - x_26 >= -5
e796: z3_20_27 = 1 -> x_20 - x_27 >= -6
e797: z3_20_28 = 1 -> x_20 - x_28 >= -7
e798: z3_20_29 = 1 -> x_20 - x_29 >= -8
e799: z3_20_30 = 1 -> x_20 - x_30 >= -9
e800: z3_20_31 = 1 -> x_20 - x_31 >= -10
e801: z3_20_32 = 1 -> x_20 - x_32 >= -11
e802: z3_20_33 = 1 -> x_20 - x_33 >= -12
e803: z3_20_34 = 1 -> x_20 - x_34 >= -13
e804: z3_20_35 = 1 -> x_20 - x_35 >= -14
e805: z3_20_36 = 1 -> x_20 - x_36 >= -15
e806: z3_20_37 = 1 -> x_20 - x_37 >= -16
e807: z3_20_38 = 1 -> x_20 - x_38 >= -17
e808: z3_20_39 = 1 -> x_20 - x_39 >= -18
e809: z3_20_40 = 1 -> x_20 - x_40 >= -19
e810: z3_20_41 = 1 -> x_20 - x_41 >= -20
e811: z3_20_42 = 1 -> x_20 - x_42 >= -21
e812: z3_20_43 = 1 -> x_20 - x_43 >= -22
e813: z3_20_44 = 1 -> x_20 - x_44 >= -23
e814: z3_20_45 = 1 -> x_20 - x_45 >= -24
e815: z3_20_46 = 1 -> x_20 - x_46 >= -25
e816: z3_20_47 = 1 -> x_20 - x_47 >= -26
e817: z3_20_48 = 1 -> x_20 - x_48 >= -27
e818: z3_20_49 = 1 -> x_20 - x_49 >= -28
e819: z3_21_22 = 1 -> x_21 - x_22 >= 0
e820: z3_21_23 = 1 -> x_21 - x_23 >= -1
e821: z3_21_24 = 1 -> x_21 - x_24 >= -2
e822: z3_21_25 = 1 -> x_21 - x_25 >= -3
e823: z3_21_26 = 1 -> x_21 - x_26 >= -4
e824: z3_21_27 = 1 -> x_21 - x_27 >= -5
e825: z3_21_28 = 1 -> x_21 - x_28 >= -6
e826: z3_21_29 = 1 -> x_21 - x_29 >= -7
e827: z3_21_30 = 1 -> x_21 - x_30 >= -8
e828: z3_21_31 = 1 -> x_21 - x_31 >= -9
e829: z3_21_32 = 1 -> x_21 - x_32 >= -10
e830: z3_21_33 = 1 -> x_21 - x_33 >= -11
e831: z3_21_34 = 1 -> x_21 - x_34 >= -12
e832: z3_21_35 = 1 -> x_21 - x_35 >= -13
e833: z3_21_36 = 1 -> x_21 - x_36 >= -14
e834: z3_21_37 = 1 -> x_21 - x_37 >= -15
e835: z3_21_38 = 1 -> x_21 - x_38 >= -16
e836: z3_21_39 = 1 -> x_21 - x_39 >= -17
e837: z3_21_40 = 1 -> x_21 - x_40 >= -18
e838: z3_21_41 = 1 -> x_21 - x_41 >= -19
e839: z3_21_42 = 1 -> x_21 - x_42 >= -20
e840: z3_21_43 = 1 -> x_21 - x_43 >= -21
e841: z3_21_44 = 1 -> x_21 - x_44 >= -22
e842: z3_21_45 = 1 -> x_21 - x_45 >= -23
e843: z3_21_46 = 1 -> x_21 - x_46 >= -24
e844: z3_21_47 = 1 -> x_21 - x_47 >= -25
e845: z3_21_48 = 1 -> x_21 - x_48 >= -26
e846: z3_21_49 = 1 -> x_21 - x_49 >= -27
e847: z3_22_23 = 1 -> x_22 - x_23 >= 0
e848: z3_22_24 = 1 -> x_22 - x_24 >= -1
e849: z3_22_25 = 1 -> x_22 - x_25 >= -2
e850: z3_22_26 = 1 -> x_22 - x_26 >= -3
e851: z3_22_27 = 1 -> x_22 - x_27 >= -4
e852: z3_22_28 = 1 -> x_22 - x_28 >= -5
e853: z3_22_29 = 1 -> x_22 - x_29 >= -6
e854: z3_22_30 = 1 -> x_22 - x_30 >= -7
e855: z3_22_31 = 1 -> x_22 - x_31 >= -8
e856: z3_22_32 = 1 -> x_22 - x_32 >= -9
e857: z3_22_33 = 1 -> x_22 - x_33 >= -10
e858: z3_22_34 = 1 -> x_22 - x_34 >= -11
e859: z3_22_35 = 1 -> x_22 - x_35 >= -12
e860: z3_22_36 = 1 -> x_22 - x_36 >= -13
e861: z3_22_37 = 1 -> x_22 - x_37 >= -14
e862: z3_22_38 = 1 -> x_22 - x_38 >= -15
e863: z3_22_39 = 1 -> x_22 - x_39 >= -16
e864: z3_22_40 = 1 -> x_22 - x_40 >= -17
e865: z3_22_41 = 1 -> x_22 - x_41 >= -18
e866: z3_22_42 = 1 -> x_22 - x_42 >= -19
e867: z3_22_43 = 1 -> x_22 - x_43 >= -20
e868: z3_22_44 = 1 -> x_22 - x_44 >= -21
e869: z3_22_45 = 1 -> x_22 - x_45 >= -22
e870: z3_22_46 = 1 -> x_22 - x_46 >= -23
e871: z3_22_47 = 1 -> x_22 - x_47 >= -24
e872: z3_22_48 = 1 -> x_22 - x_48 >= -25
e873: z3_22_49 = 1 -> x_22 - x_49 >= -26
e874: z3_23_24 = 1 -> x_23 - x_24 >= 0
e875: z3_23_25 = 1 -> x_23 - x_25 >= -1
e876: z3_23_26 = 1 -> x_23 - x_26 >= -2
e877: z3_23_27 = 1 -> x_23 - x_27 >= -3
e878: z3_23_28 = 1 -> x_23 - x_28 >= -4
e879: z3_23_29 = 1 -> x_23 - x_29 >= -5
e880: z3_23_30 = 1 -> x_23 - x_30 >= -6
e881: z3_23_31 = 1 -> x_23 - x_31 >= -7
e882: z3_23_32 = 1 -> x_23 - x_32 >= -8
e883: z3_23_33 = 1 -> x_23 - x_33 >= -9
e884: z3_23_34 = 1 -> x_23 - x_34 >= -10
e885: z3_23_35 = 1 -> x_23 - x_35 >= -11
e886: z3_23_36 = 1 -> x_23 - x_36 >= -12
e887: z3_23_37 = 1 -> x_23 - x_37 >= -13
e888: z3_23_38 = 1 -> x_23 - x_38 >= -14
e889: z3_23_39 = 1 -> x_23 - x_39 >= -15
e890: z3_23_40 = 1 -> x_23 - x_40 >= -16
e891: z3_23_41 = 1 -> x_23 - x_41 >= -17
e892: z3_23_42 = 1 -> x_23 - x_42 >= -18
e893: z3_23_43 = 1 -> x_23 - x_43 >= -19
e894: z3_23_44 = 1 -> x_23 - x_44 >= -20
e895: z3_23_45 = 1 -> x_23 - x_45 >= -21
e896: z3_23_46 = 1 -> x_23 - x_46 >= -22
e897: z3_23_47 = 1 -> x_23 - x_47 >= -23
e898: z3_23_48 = 1 -> x_23 - x_48 >= -24
e899: z3_23_49 = 1 -> x_23 - x_49 >= -25
e900: z3_24_25 = 1 -> x_24 - x_25 >= 0
e901: z3_24_26 = 1 -> x_24 - x_26 >= -1
e902: z3_24_27 = 1 -> x_24 - x_27 >= -2
e903: z3_24_28 = 1 -> x_24 - x_28 >= -3
e904: z3_24_29 = 1 -> x_24 - x_29 >= -4
e905: z3_24_30 = 1 -> x_24 - x_30 >= -5
e906: z3_24_31 = 1 -> x_24 - x_31 >= -6
e907: z3_24_32 = 1 -> x_24 - x_32 >= -7
e908: z3_24_33 = 1 -> x_24 - x_33 >= -8
e909: z3_24_34 = 1 -> x_24 - x_34 >= -9
e910: z3_24_35 = 1 -> x_24 - x_35 >= -10
e911: z3_24_36 = 1 -> x_24 - x_36 >= -11
e912: z3_24_37 = 1 -> x_24 - x_37 >= -12
e913: z3_24_38 = 1 -> x_24 - x_38 >= -13
e914: z3_24_39 = 1 -> x_24 - x_39 >= -14
e915: z3_24_40 = 1 -> x_24 - x_40 >= -15
e916: z3_24_41 = 1 -> x_24 - x_41 >= -16
e917: z3_24_42 = 1 -> x_24 - x_42 >= -17
e918: z3_24_43 = 1 -> x_24 - x_43 >= -18
e919: z3_24_44 = 1 -> x_24 - x_44 >= -19
e920: z3_24_45 = 1 -> x_24 - x_45 >= -20
e921: z3_24_46 = 1 -> x_24 - x_46 >= -21
e922: z3_24_47 = 1 -> x_24 - x_47 >= -22
e923: z3_24_48 = 1 -> x_24 - x_48 >= -23
e924: z3_24_49 = 1 -> x_24 - x_49 >= -24
e925: z3_25_26 = 1 -> x_25 - x_26 >= 0
e926: z3_25_27 = 1 -> x_25 - x_27 >= -1
e927: z3_25_28 = 1 -> x_25 - x_28 >= -2
e928: z3_25_29 = 1 -> x_25 - x_29 >= -3
e929: z3_25_30 = 1 -> x_25 - x_30 >= -4
e930: z3_25_31 = 1 -> x_25 - x_31 >= -5
e931: z3_25_32 = 1 -> x_25 - x_32 >= -6
e932: z3_25_33 = 1 -> x_25 - x_33 >= -7
e933: z3_25_34 = 1 -> x_25 - x_34 >= -8
e934: z3_25_35 = 1 -> x_25 - x_35 >= -9
e935: z3_25_36 = 1 -> x_25 - x_36 >= -10
e936: z3_25_37 = 1 -> x_25 - x_37 >= -11
e937: z3_25_38 = 1 -> x_25 - x_38 >= -12
e938: z3_25_39 = 1 -> x_25 - x_39 >= -13
e939: z3_25_40 = 1 -> x_25 - x_40 >= -14
e940: z3_25_41 = 1 -> x_25 - x_41 >= -15
e941: z3_25_42 = 1 -> x_25 - x_42 >= -16
e942: z3_25_43 = 1 -> x_25 - x_43 >= -17
e943: z3_25_44 = 1 -> x_25 - x_44 >= -18
e944: z3_25_45 = 1 -> x_25 - x_45 >= -19
e945: z3_25_46 = 1 -> x_25 - x_46 >= -20
e946: z3_25_47 = 1 -> x_25 - x_47 >= -21
e947: z3_25_48 = 1 -> x_25 - x_48 >= -22
e948: z3_25_49 = 1 -> x_25 - x_49 >= -23
e949: z3_26_27 = 1 -> x_26 - x_27 >= 0
e950: z3_26_28 = 1 -> x_26 - x_28 >= -1
e951: z3_26_29 = 1 -> x_26 - x_29 >= -2
e952: z3_26_30 = 1 -> x_26 - x_30 >= -3
e953: z3_26_31 = 1 -> x_26 - x_31 >= -4
e954: z3_26_32 = 1 -> x_26 - x_32 >= -5
e955: z3_26_33 = 1 -> x_26 - x_33 >= -6
e956: z3_26_34 = 1 -> x_26 - x_34 >= -7
e957: z3_26_35 = 1 -> x_26 - x_35 >= -8
e958: z3_26_36 = 1 -> x_26 - x_36 >= -9
e959: z3_26_37 = 1 -> x_26 - x_37 >= -10
e960: z3_26_38 = 1 -> x_26 - x_38 >= -11
e961: z3_26_39 = 1 -> x_26 - x_39 >= -12
e962: z3_26_40 = 1 -> x_26 - x_40 >= -13
e963: z3_26_41 = 1 -> x_26 - x_41 >= -14
e964: z3_26_42 = 1 -> x_26 - x_42 >= -15
e965: z3_26_43 = 1 -> x_26 - x_43 >= -16
e966: z3_26_44 = 1 -> x_26 - x_44 >= -17
e967: z3_26_45 = 1 -> x_26 - x_45 >= -18
e968: z3_26_46 = 1 -> x_26 - x_46 >= -19
e969: z3_26_47 = 1 -> x_26 - x_47 >= -20
e970: z3_26_48 = 1 -> x_26 - x_48 >= -21
e971: z3_26_49 = 1 -> x_26 - x_49 >= -22
e972: z3_27_28 = 1 -> x_27 - x_28 >= 0
e973: z3_27_29 = 1 -> x_27 - x_29 >= -1
e974: z3_27_30 = 1 -> x_27 - x_30 >= -2
e975: z3_27_31 = 1 -> x_27 - x_31 >= -3
e976: z3_27_32 = 1 -> x_27 - x_32 >= -4
e977: z3_27_33 = 1 -> x_27 - x_33 >= -5
e978: z3_27_34 = 1 -> x_27 - x_34 >= -6
e979: z3_27_35 = 1 -> x_27 - x_35 >= -7
e980: z3_27_36 = 1 -> x_27 - x_36 >= -8
e981: z3_27_37 = 1 -> x_27 - x_37 >= -9
e982: z3_27_38 = 1 -> x_27 - x_38 >= -10
e983: z3_27_39 = 1 -> x_27 - x_39 >= -11
e984: z3_27_40 = 1 -> x_27 - x_40 >= -12
e985: z3_27_41 = 1 -> x_27 - x_41 >= -13
e986: z3_27_42 = 1 -> x_27 - x_42 >= -14
e987: z3_27_43 = 1 -> x_27 - x_43 >= -15
e988: z3_27_44 = 1 -> x_27 - x_44 >= -16
e989: z3_27_45 = 1 -> x_27 - x_45 >= -17
e990: z3_27_46 = 1 -> x_27 - x_46 >= -18
e991: z3_27_47 = 1 -> x_27 - x_47 >= -19
e992: z3_27_48 = 1 -> x_27 - x_48 >= -20
e993: z3_27_49 = 1 -> x_27 - x_49 >= -21
e994: z3_28_29 = 1 -> x_28 - x_29 >= 0
e995: z3_28_30 = 1 -> x_28 - x_30 >= -1
e996: z3_28_31 = 1 -> x_28 - x_31 >= -2
e997: z3_28_32 = 1 -> x_28 - x_32 >= -3
e998: z3_28_33 = 1 -> x_28 - x_33 >= -4
e999: z3_28_34 = 1 -> x_28 - x_34 >= -5
e1000: z3_28_35 = 1 -> x_28 - x_35 >= -6
e1001: z3_28_36 = 1 -> x_28 - x_36 >= -7
e1002: z3_28_37 = 1 -> x_28 - x_37 >= -8
e1003: z3_28_38 = 1 -> x_28 - x_38 >= -9
e1004: z3_28_39 = 1 -> x_28 - x_39 >= -10
e1005: z3_28_40 = 1 -> x_28 - x_40 >= -11
e1006: z3_28_41 = 1 -> x_28 - x_41 >= -12
e1007: z3_28_42 = 1 -> x_28 - x_42 >= -13
e1008: z3_28_43 = 1 -> x_28 - x_43 >= -14
e1009: z3_28_44 = 1 -> x_28 - x_44 >= -15
e1010: z3_28_45 = 1 -> x_28 - x_45 >= -16
e1011: z3_28_46 = 1 -> x_28 - x_46 >= -17
e1012: z3_28_47 = 1 -> x_28 - x_47 >= -18
e1013: z3_28_48 = 1 -> x_28 - x_48 >= -19
e1014: z3_28_49 = 1 -> x_28 - x_49 >= -20
e1015: z3_29_30 = 1 -> x_29 - x_30 >= 0
e1016: z3_29_31 = 1 -> x_29 - x_31 >= -1
e1017: z3_29_32 = 1 -> x_29 - x_32 >= -2
e1018: z3_29_33 = 1 -> x_29 - x_33 >= -3
e1019: z3_29_34 = 1 -> x_29 - x_34 >= -4
e1020: z3_29_35 = 1 -> x_29 - x_35 >= -5
e1021: z3_29_36 = 1 -> x_29 - x_36 >= -6
e1022: z3_29_37 = 1 -> x_29 - x_37 >= -7
e1023: z3_29_38 = 1 -> x_29 - x_38 >= -8
e1024: z3_29_39 = 1 -> x_29 - x_39 >= -9
e1025: z3_29_40 = 1 -> x_29 - x_40 >= -10
e1026: z3_29_41 = 1 -> x_29 - x_41 >= -11
e1027: z3_29_42 = 1 -> x_29 - x_42 >= -12
e1028: z3_29_43 = 1 -> x_29 - x_43 >= -13
e1029: z3_29_44 = 1 -> x_29 - x_44 >= -14
e1030: z3_29_45 = 1 -> x_29 - x_45 >= -15
e1031: z3_29_46 = 1 -> x_29 - x_46 >= -16
e1032: z3_29_47 = 1 -> x_29 - x_47 >= -17
e1033: z3_29_48 = 1 -> x_29 - x_48 >= -18
e1034: z3_29_49 = 1 -> x_29 - x_49 >= -19
e1035: z3_30_31 = 1 -> x_30 - x_31 >= 0
e1036: z3_30_32 = 1 -> x_30 - x_32 >= -1
e1037: z3_30_33 = 1 -> x_30 - x_33 >= -2
e1038: z3_30_34 = 1 -> x_30 - x_34 >= -3
e1039: z3_30_35 = 1 -> x_30 - x_35 >= -4
e1040: z3_30_36 = 1 -> x_30 - x_36 >= -5
e1041: z3_30_37 = 1 -> x_30 - x_37 >= -6
e1042: z3_30_38 = 1 -> x_30 - x_38 >= -7
e1043: z3_30_39 = 1 -> x_30 - x_39 >= -8
e1044: z3_30_40 = 1 -> x_30 - x_40 >= -9
e1045: z3_30_41 = 1 -> x_30 - x_41 >= -10
e1046: z3_30_42 = 1 -> x_30 - x_42 >= -11
e1047: z3_30_43 = 1 -> x_30 - x_43 >= -12
e1048: z3_30_44 = 1 -> x_30 - x_44 >= -13
e1049: z3_30_45 = 1 -> x_30 - x_45 >= -14
e1050: z3_30_46 = 1 -> x_30 - x_46 >= -15
e1051: z3_30_47 = 1 -> x_30 - x_47 >= -16
e1052: z3_30_48 = 1 -> x_30 - x_48 >= -17
e1053: z3_30_49 = 1 -> x_30 - x_49 >= -18
e1054: z3_31_32 = 1 -> x_31 - x_32 >= 0
e1055: z3_31_33 = 1 -> x_31 - x_33 >= -1
e1056: z3_31_34 = 1 -> x_31 - x_34 >= -2
e1057: z3_31_35 = 1 -> x_31 - x_35 >= -3
e1058: z3_31_36 = 1 -> x_31 - x_36 >= -4
e1059: z3_31_37 = 1 -> x_31 - x_37 >= -5
e1060: z3_31_38 = 1 -> x_31 - x_38 >= -6
e1061: z3_31_39 = 1 -> x_31 - x_39 >= -7
e1062: z3_31_40 = 1 -> x_31 - x_40 >= -8
e1063: z3_31_41 = 1 -> x_31 - x_41 >= -9
e1064: z3_31_42 = 1 -> x_31 - x_42 >= -10
e1065: z3_31_43 = 1 -> x_31 - x_43 >= -11
e1066: z3_31_44 = 1 -> x_31 - x_44 >= -12
e1067: z3_31_45 = 1 -> x_31 - x_45 >= -13
e1068: z3_31_46 = 1 -> x_31 - x_46 >= -14
e1069: z3_31_47 = 1 -> x_31 - x_47 >= -15
e1070: z3_31_48 = 1 -> x_31 - x_48 >= -16
e1071: z3_31_49 = 1 -> x_31 - x_49 >= -17
e1072: z3_32_33 = 1 -> x_32 - x_33 >= 0
e1073: z3_32_34 = 1 -> x_32 - x_34 >= -1
e1074: z3_32_35 = 1 -> x_32 - x_35 >= -2
e1075: z3_32_36 = 1 -> x_32 - x_36 >= -3
e1076: z3_32_37 = 1 -> x_32 - x_37 >= -4
e1077: z3_32_38 = 1 -> x_32 - x_38 >= -5
e1078: z3_32_39 = 1 -> x_32 - x_39 >= -6
e1079: z3_32_40 = 1 -> x_32 - x_40 >= -7
e1080: z3_32_41 = 1 -> x_32 - x_41 >= -8
e1081: z3_32_42 = 1 -> x_32 - x_42 >= -9
e1082: z3_32_43 = 1 -> x_32 - x_43 >= -10
e1083: z3_32_44 = 1 -> x_32 - x_44 >= -11
e1084: z3_32_45 = 1 -> x_32 - x_45 >= -12
e1085: z3_32_46 = 1 -> x_32 - x_46 >= -13
e1086: z3_32_47 = 1 -> x_32 - x_47 >= -14
e1087: z3_32_48 = 1 -> x_32 - x_48 >= -15
e1088: z3_32_49 = 1 -> x_32 - x_49 >= -16
e1089: z3_33_34 = 1 -> x_33 - x_34 >= 0
e1090: z3_33_35 = 1 -> x_33 - x_35 >= -1
e1091: z3_33_36 = 1 -> x_33 - x_36 >= -2
e1092: z3_33_37 = 1 -> x_33 - x_37 >= -3
e1093: z3_33_38 = 1 -> x_33 - x_38 >= -4
e1094: z3_33_39 = 1 -> x_33 - x_39 >= -5
e1095: z3_33_40 = 1 -> x_33 - x_40 >= -6
e1096: z3_33_41 = 1 -> x_33 - x_41 >= -7
e1097: z3_33_42 = 1 -> x_33 - x_42 >= -8
e1098: z3_33_43 = 1 -> x_33 - x_43 >= -9
e1099: z3_33_44 = 1 -> x_33 - x_44 >= -10
e1100: z3_33_45 = 1 -> x_33 - x_45 >= -11
e1101: z3_33_46 = 1 -> x_33 - x_46 >= -12
e1102: z3_33_47 = 1 -> x_33 - x_47 >= -13
e1103: z3_33_48 = 1 -> x_33 - x_48 >= -14
e1104: z3_33_49 = 1 -> x_33 - x_49 >= -15
e1105: z3_34_35 = 1 -> x_34 - x_35 >= 0
e1106: z3_34_36 = 1 -> x_34 - x_36 >= -1
e1107: z3_34_37 = 1 -> x_34 - x_37 >= -2
e1108: z3_34_38 = 1 -> x_34 - x_38 >= -3
e1109: z3_34_39 = 1 -> x_34 - x_39 >= -4
e1110: z3_34_40 = 1 -> x_34 - x_40 >= -5
e1111: z3_34_41 = 1 -> x_34 - x_41 >= -6
e1112: z3_34_42 = 1 -> x_34 - x_42 >= -7
e1113: z3_34_43 = 1 -> x_34 - x_43 >= -8
e1114: z3_34_44 = 1 -> x_34 - x_44 >= -9
e1115: z3_34_45 = 1 -> x_34 - x_45 >= -10
e1116: z3_34_46 = 1 -> x_34 - x_46 >= -11
e1117: z3_34_47 = 1 -> x_34 - x_47 >= -12
e1118: z3_34_48 = 1 -> x_34 - x_48 >= -13
e1119: z3_34_49 = 1 -> x_34 - x_49 >= -14
e1120: z3_35_36 = 1 -> x_35 - x_36 >= 0
e1121: z3_35_37 = 1 -> x_35 - x_37 >= -1
e1122: z3_35_38 = 1 -> x_35 - x_38 >= -2
e1123: z3_35_39 = 1 -> x_35 - x_39 >= -3
e1124: z3_35_40 = 1 -> x_35 - x_40 >= -4
e1125: z3_35_41 = 1 -> x_35 - x_41 >= -5
e1126: z3_35_42 = 1 -> x_35 - x_42 >= -6
e1127: z3_35_43 = 1 -> x_35 - x_43 >= -7
e1128: z3_35_44 = 1 -> x_35 - x_44 >= -8
e1129: z3_35_45 = 1 -> x_35 - x_45 >= -9
e1130: z3_35_46 = 1 -> x_35 - x_46 >= -10
e1131: z3_35_47 = 1 -> x_35 - x_47 >= -11
e1132: z3_35_48 = 1 -> x_35 - x_48 >= -12
e1133: z3_35_49 = 1 -> x_35 - x_49 >= -13
e1134: z3_36_37 = 1 -> x_36 - x_37 >= 0
e1135: z3_36_38 = 1 -> x_36 - x_38 >= -1
e1136: z3_36_39 = 1 -> x_36 - x_39 >= -2
e1137: z3_36_40 = 1 -> x_36 - x_40 >= -3
e1138: z3_36_41 = 1 -> x_36 - x_41 >= -4
e1139: z3_36_42 = 1 -> x_36 - x_42 >= -5
e1140: z3_36_43 = 1 -> x_36 - x_43 >= -6
e1141: z3_36_44 = 1 -> x_36 - x_44 >= -7
e1142: z3_36_45 = 1 -> x_36 - x_45 >= -8
e1143: z3_36_46 = 1 -> x_36 - x_46 >= -9
e1144: z3_36_47 = 1 -> x_36 - x_47 >= -10
e1145: z3_36_48 = 1 -> x_36 - x_48 >= -11
e1146: z3_36_49 = 1 -> x_36 - x_49 >= -12
e1147: z3_37_38 = 1 -> x_37 - x_38 >= 0
e1148: z3_37_39 = 1 -> x_37 - x_39 >= -1
e1149: z3_37_40 = 1 -> x_37 - x_40 >= -2
e1150: z3_37_41 = 1 -> x_37 - x_41 >= -3
e1151: z3_37_42 = 1 -> x_37 - x_42 >= -4
e1152: z3_37_43 = 1 -> x_37 - x_43 >= -5
e1153: z3_37_44 = 1 -> x_37 - x_44 >= -6
e1154: z3_37_45 = 1 -> x_37 - x_45 >= -7
e1155: z3_37_46 = 1 -> x_37 - x_46 >= -8
e1156: z3_37_47 = 1 -> x_37 - x_47 >= -9
e1157: z3_37_48 = 1 -> x_37 - x_48 >= -10
e1158: z3_37_49 = 1 -> x_37 - x_49 >= -11
e1159: z3_38_39 = 1 -> x_38 - x_39 >= 0
e1160: z3_38_40 = 1 -> x_38 - x_40 >= -1
e1161: z3_38_41 = 1 -> x_38 - x_41 >= -2
e1162: z3_38_42 = 1 -> x_38 - x_42 >= -3
e1163: z3_38_43 = 1 -> x_38 - x_43 >= -4
e1164: z3_38_44 = 1 -> x_38 - x_44 >= -5
e1165: z3_38_45 = 1 -> x_38 - x_45 >= -6
e1166: z3_38_46 = 1 -> x_38 - x_46 >= -7
e1167: z3_38_47 = 1 -> x_38 - x_47 >= -8
e1168: z3_38_48 = 1 -> x_38 - x_48 >= -9
e1169: z3_38_49 = 1 -> x_38 - x_49 >= -10
e1170: z3_39_40 = 1 -> x_39 - x_40 >= 0
e1171: z3_39_41 = 1 -> x_39 - x_41 >= -1
e1172: z3_39_42 = 1 -> x_39 - x_42 >= -2
e1173: z3_39_43 = 1 -> x_39 - x_43 >= -3
e1174: z3_39_44 = 1 -> x_39 - x_44 >= -4
e1175: z3_39_45 = 1 -> x_39 - x_45 >= -5
e1176: z3_39_46 = 1 -> x_39 - x_46 >= -6
e1177: z3_39_47 = 1 -> x_39 - x_47 >= -7
e1178: z3_39_48 = 1 -> x_39 - x_48 >= -8
e1179: z3_39_49 = 1 -> x_39 - x_49 >= -9
e1180: z3_40_41 = 1 -> x_40 - x_41 >= 0
e1181: z3_40_42 = 1 -> x_40 - x_42 >= -1
e1182: z3_40_43 = 1 -> x_40 - x_43 >= -2
e1183: z3_40_44 = 1 -> x_40 - x_44 >= -3
e1184: z3_40_45 = 1 -> x_40 - x_45 >= -4
e1185: z3_40_46 = 1 -> x_40 - x_46 >= -5
e1186: z3_40_47 = 1 -> x_40 - x_47 >= -6
e1187: z3_40_48 = 1 -> x_40 - x_48 >= -7
e1188: z3_40_49 = 1 -> x_40 - x_49 >= -8
e1189: z3_41_42 = 1 -> x_41 - x_42 >= 0
e1190: z3_41_43 = 1 -> x_41 - x_43 >= -1
e1191: z3_41_44 = 1 -> x_41 - x_44 >= -2
e1192: z3_41_45 = 1 -> x_41 - x_45 >= -3
e1193: z3_41_46 = 1 -> x_41 - x_46 >= -4
e1194: z3_41_47 = 1 -> x_41 - x_47 >= -5
e1195: z3_41_48 = 1 -> x_41 - x_48 >= -6
e1196: z3_41_49 = 1 -> x_41 - x_49 >= -7
e1197: z3_42_43 = 1 -> x_42 - x_43 >= 0
e1198: z3_42_44 = 1 -> x_42 - x_44 >= -1
e1199: z3_42_45 = 1 -> x_42 - x_45 >= -2
e1200: z3_42_46 = 1 -> x_42 - x_46 >= -3
e1201: z3_42_47 = 1 -> x_42 - x_47 >= -4
e1202: z3_42_48 = 1 -> x_42 - x_48 >= -5
e1203: z3_42_49 = 1 -> x_42 - x_49 >= -6
e1204: z3_43_44 = 1 -> x_43 - x_44 >= 0
e1205: z3_43_45 = 1 -> x_43 - x_45 >= -1
e1206: z3_43_46 = 1 -> x_43 - x_46 >= -2
e1207: z3_43_47 = 1 -> x_43 - x_47 >= -3
e1208: z3_43_48 = 1 -> x_43 - x_48 >= -4
e1209: z3_43_49 = 1 -> x_43 - x_49 >= -5
e1210: z3_44_45 = 1 -> x_44 - x_45 >= 0
e1211: z3_44_46 = 1 -> x_44 - x_46 >= -1
e1212: z3_44_47 = 1 -> x_44 - x_47 >= -2
e1213: z3_44_48 = 1 -> x_44 - x_48 >= -3
e1214: z3_44_49 = 1 -> x_44 - x_49 >= -4
e1215: z3_45_46 = 1 -> x_45 - x_46 >= 0
e1216: z3_45_47 = 1 -> x_45 - x_47 >= -1
e1217: z3_45_48 = 1 -> x_45 - x_48 >= -2
e1218: z3_45_49 = 1 -> x_45 - x_49 >= -3
e1219: z3_46_47 = 1 -> x_46 - x_47 >= 0
e1220: z3_46_48 = 1 -> x_46 - x_48 >= -1
e1221: z3_46_49 = 1 -> x_46 - x_49 >= -2
e1222: z3_47_48 = 1 -> x_47 - x_48 >= 0
e1223: z3_47_49 = 1 -> x_47 - x_49 >= -1
e1224: z3_48_49 = 1 -> x_48 - x_49 >= 0
f0: z3_0_1 = 0 -> x_0 - x_1 <= -2
f1: z3_0_2 = 0 -> x_0 - x_2 <= -3
f2: z3_0_3 = 0 -> x_0 - x_3 <= -4
f3: z3_0_4 = 0 -> x_0 - x_4 <= -5
f4: z3_0_5 = 0 -> x_0 - x_5 <= -6
f5: z3_0_6 = 0 -> x_0 - x_6 <= -7
f6: z3_0_7 = 0 -> x_0 - x_7 <= -8
f7: z3_0_8 = 0 -> x_0 - x_8 <= -9
f8: z3_0_9 = 0 -> x_0 - x_9 <= -10
f9: z3_0_10 = 0 -> x_0 - x_10 <= -11
f10: z3_0_11 = 0 -> x_0 - x_11 <= -12
f11: z3_0_12 = 0 -> x_0 - x_12 <= -13
f12: z3_0_13 = 0 -> x_0 - x_13 <= -14
f13: z3_0_14 = 0 -> x_0 - x_14 <= -15
f14: z3_0_15 = 0 -> x_0 - x_15 <= -16
f15: z3_0_16 = 0 -> x_0 - x_16 <= -17
f16: z3_0_17 = 0 -> x_0 - x_17 <= -18
f17: z3_0_18 = 0 -> x_0 - x_18 <= -19
f18: z3_0_19 = 0 -> x_0 - x_19 <= -20
f19: z3_0_20 = 0 -> x_0 - x_20 <= -21
f20: z3_0_21 = 0 -> x_0 - x_21 <= -22
f21: z3_0_22 = 0 -> x_0 - x_22 <= -23
f22: z3_0_23 = 0 -> x_0 - x_23 <= -24
f23: z3_0_24 = 0 -> x_0 - x_24 <= -25
f24: z3_0_25 = 0 -> x_0 - x_25 <= -26
f25: z3_0_26 = 0 -> x_0 - x_26 <= -27
f26: z3_0_27 = 0 -> x_0 - x_27 <= -28
f27: z3_0_28 = 0 -> x_0 - x_28 <= -29
f28: z3_0_29 = 0 -> x_0 - x_29 <= -30
f29: z3_0_30 = 0 -> x_0 - x_30 <= -31
f30: z3_0_31 = 0 -> x_0 - x_31 <= -32
f31: z3_0_32 = 0 -> x_0 - x_32 <= -33
f32: z3_0_33 = 0 -> x_0 - x_33 <= -34
f33: z3_0_34 = 0 -> x_0 - x_34 <= -35
f34: z3_0_35 = 0 -> x_0 - x_35 <= -36
f35: z3_0_36 = 0 -> x_0 - x_36 <= -37
f36: z3_0_37 = 0 -> x_0 - x_37 <= -38
f37: z3_0_38 = 0 -> x_0 - x_38 <= -39
f38: z3_0_39 = 0 -> x_0 - x_39 <= -40
f39: z3_0_40 = 0 -> x_0 - x_40 <= -41
f40: z3_0_41 = 0 -> x_0 - x_41 <= -42
f41: z3_0_42 = 0 -> x_0 - x_42 <= -43
f42: z3_0_43 = 0 -> x_0 - x_43 <= -44
f43: z3_0_44 = 0 -> x_0 - x_44 <= -45
f44: z3_0_45 = 0 -> x_0 - x_45 <= -46
f45: z3_0_46 = 0 -> x_0 - x_46 <= -47
f46: z3_0_47 = 0 -> x_0 - x_47 <= -48
f47: z3_0_48 = 0 -> x_0 - x_48 <= -49
f48: z3_0_49 = 0 -> x_0 - x_49 <= -50
f49: z3_1_2 = 0 -> x_1 - x_2 <= -2
f50: z3_1_3 = 0 -> x_1 - x_3 <= -3
f51: z3_1_4 = 0 -> x_1 - x_4 <= -4
f52: z3_1_5 = 0 -> x_1 - x_5 <= -5
f53: z3_1_6 = 0 -> x_1 - x_6 <= -6
f54: z3_1_7 = 0 -> x_1 - x_7 <= -7
f55: z3_1_8 = 0 -> x_1 - x_8 <= -8
f56: z3_1_9 = 0 -> x_1 - x_9 <= -9
f57: z3_1_10 = 0 -> x_1 - x_10 <= -10
f58: z3_1_11 = 0 -> x_1 - x_11 <= -11
f59: z3_1_12 = 0 -> x_1 - x_12 <= -12
f60: z3_1_13 = 0 -> x_1 - x_13 <= -13
f61: z3_1_14 = 0 -> x_1 - x_14 <= -14
f62: z3_1_15 = 0 -> x_1 - x_15 <= -15
f63: z3_1_16 = 0 -> x_1 - x_16 <= -16
f64: z3_1_17 = 0 -> x_1 - x_17 <= -17
f65: z3_1_18 = 0 -> x_1 - x_18 <= -18
f66: z3_1_19 = 0 -> x_1 - x_19 <= -19
f67: z3_1_20 = 0 -> x_1 - x_20 <= -20
f68: z3_1_21 = 0 -> x_1 - x_21 <= -21
f69: z3_1_22 = 0 -> x_1 - x_22 <= -22
f70: z3_1_23 = 0 -> x_1 - x_23 <= -23
f71: z3_1_24 = 0 -> x_1 - x_24 <= -24
f72: z3_1_25 = 0 -> x_1 - x_25 <= -25
f73: z3_1_26 = 0 -> x_1 - x_26 <= -26
f74: z3_1_27 = 0 -> x_1 - x_27 <= -27
f75: z3_1_28 = 0 -> x_1 - x_28 <= -28
f76: z3_1_29 = 0 -> x_1 - x_29 <= -29
f77: z3_1_30 = 0 -> x_1 - x_30 <= -30
f78: z3_1_31 = 0 -> x_1 - x_31 <= -31
f79: z3_1_32 = 0 -> x_1 - x_32 <= -32
f80: z3_1_33 = 0 -> x_1 - x_33 <= -33
f81: z3_1_34 = 0 -> x_1 - x_34 <= -34
f82: z3_1_35 = 0 -> x_1 - x_35 <= -35
f83: z3_1_36 = 0 -> x_1 - x_36 <= -36
f84: z3_1_37 = 0 -> x_1 - x_37 <= -37
f85: z3_1_38 = 0 -> x_1 - x_38 <= -38
f86: z3_1_39 = 0 -> x_1 - x_39 <= -39
f87: z3_1_40 = 0 -> x_1 - x_40 <= -40
f88: z3_1_41 = 0 -> x_1 - x_41 <= -41
f89: z3_1_42 = 0 -> x_1 - x_42 <= -42
f90: z3_1_43 = 0 -> x_1 - x_43 <= -43
f91: z3_1_44 = 0 -> x_1 - x_44 <= -44
f92: z3_1_45 = 0 -> x_1 - x_45 <= -45
f93: z3_1_46 = 0 -> x_1 - x_46 <= -46
f94: z3_1_47 = 0 -> x_1 - x_47 <= -47
f95: z3_1_48 = 0 -> x_1 - x_48 <= -48
f96: z3_1_49 = 0 -> x_1 - x_49 <= -49
f97: z3_2_3 = 0 -> x_2 - x_3 <= -2
f98: z3_2_4 = 0 -> x_2 - x_4 <= -3
f99: z3_2_5 = 0 -> x_2 - x_5 <= -4
f100: z3_2_6 = 0 -> x_2 - x_6 <= -5
f101: z3_2_7 = 0 -> x_2 - x_7 <= -6
f102: z3_2_8 = 0 -> x_2 - x_8 <= -7
f103: z3_2_9 = 0 -> x_2 - x_9 <= -8
f104: z3_2_10 = 0 -> x_2 - x_10 <= -9
f105: z3_2_11 = 0 -> x_2 - x_11 <= -10
f106: z3_2_12 = 0 -> x_2 - x_12 <= -11
f107: z3_2_13 = 0 -> x_2 - x_13 <= -12
f108: z3_2_14 = 0 -> x_2 - x_14 <= -13
f109: z3_2_15 = 0 -> x_2 - x_15 <= -14
f110: z3_2_16 = 0 -> x_2 - x_16 <= -15
f111: z3_2_17 = 0 -> x_2 - x_17 <= -16
f112: z3_2_18 = 0 -> x_2 - x_18 <= -17
f113: z3_2_19 = 0 -> x_2 - x_19 <= -18
f114: z3_2_20 = 0 -> x_2 - x_20 <= -19
f115: z3_2_21 = 0 -> x_2 - x_21 <= -20
f116: z3_2_22 = 0 -> x_2 - x_22 <= -21
f117: z3_2_23 = 0 -> x_2 - x_23 <= -22
f118: z3_2_24 = 0 -> x_2 - x_24 <= -23
f119: z3_2_25 = 0 -> x_2 - x_25 <= -24
f120: z3_2_26 = 0 -> x_2 - x_26 <= -25
f121: z3_2_27 = 0 -> x_2 - x_27 <= -26
f122: z3_2_28 = 0 -> x_2 - x_28 <= -27
f123: z3_2_29 = 0 -> x_2 - x_29 <= -28
f124: z3_2_30 = 0 -> x_2 - x_30 <= -29
f125: z3_2_31 = 0 -> x_2 - x_31 <= -30
f126: z3_2_32 = 0 -> x_2 - x_32 <= -31
f127: z3_2_33 = 0 -> x_2 - x_33 <= -32
f128: z3_2_34 = 0 -> x_2 - x_34 <= -33
f129: z3_2_35 = 0 -> x_2 - x_35 <= -34
f130: z3_2_36 = 0 -> x_2 - x_36 <= -35
f131: z3_2_37 = 0 -> x_2 - x_37 <= -36
f132: z3_2_38 = 0 -> x_2 - x_38 <= -37
f133: z3_2_39 = 0 -> x_2 - x_39 <= -38
f134: z3_2_40 = 0 -> x_2 - x_40 <= -39
f135: z3_2_41 = 0 -> x_2 - x_41 <= -40
f136: z3_2_42 = 0 -> x_2 - x_42 <= -41
f137: z3_2_43 = 0 -> x_2 - x_43 <= -42
f138: z3_2_44 = 0 -> x_2 - x_44 <= -43
f139: z3_2_45 = 0 -> x_2 - x_45 <= -44
f140: z3_2_46 = 0 -> x_2 - x_46 <= -45
f141: z3_2_47 = 0 -> x_2 - x_47 <= -46
f142: z3_2_48 = 0 -> x_2 - x_48 <= -47
f143: z3_2_49 = 0 -> x_2 - x_49 <= -48
f144: z3_3_4 = 0 -> x_3 - x_4 <= -2
f145: z3_3_5 = 0 -> x_3 - x_5 <= -3
f146: z3_3_6 = 0 -> x_3 - x_6 <= -4
f147: z3_3_7 = 0 -> x_3 - x_7 <= -5
f148: z3_3_8 = 0 -> x_3 - x_8 <= -6
f149: z3_3_9 = 0 -> x_3 - x_9 <= -7
f150: z3_3_10 = 0 -> x_3 - x_10 <= -8
f151: z3_3_11 = 0 -> x_3 - x_11 <= -9
f152: z3_3_12 = 0 -> x_3 - x_12 <= -10
f153: z3_3_13 = 0 -> x_3 - x_13 <= -11
f154: z3_3_14 = 0 -> x_3 - x_14 <= -12
f155: z3_3_15 = 0 -> x_3 - x_15 <= -13
f156: z3_3_16 = 0 -> x_3 - x_16 <= -14
f157: z3_3_17 = 0 -> x_3 - x_17 <= -15
f158: z3_3_18 = 0 -> x_3 - x_18 <= -16
f159: z3_3_19 = 0 -> x_3 - x_19 <= -17
f160: z3_3_20 = 0 -> x_3 - x_20 <= -18
f161: z3_3_21 = 0 -> x_3 - x_21 <= -19
f162: z3_3_22 = 0 -> x_3 - x_22 <= -20
f163: z3_3_23 = 0 -> x_3 - x_23 <= -21
f164: z3_3_24 = 0 -> x_3 - x_24 <= -22
f165: z3_3_25 = 0 -> x_3 - x_25 <= -23
f166: z3_3_26 = 0 -> x_3 - x_26 <= -24
f167: z3_3_27 = 0 -> x_3 - x_27 <= -25
f168: z3_3_28 = 0 -> x_3 - x_28 <= -26
f169: z3_3_29 = 0 -> x_3 - x_29 <= -27
f170: z3_3_30 = 0 -> x_3 - x_30 <= -28
f171: z3_3_31 = 0 -> x_3 - x_31 <= -29
f172: z3_3_32 = 0 -> x_3 - x_32 <= -30
f173: z3_3_33 = 0 -> x_3 - x_33 <= -31
f174: z3_3_34 = 0 -> x_3 - x_34 <= -32
f175: z3_3_35 = 0 -> x_3 - x_35 <= -33
f176: z3_3_36 = 0 -> x_3 - x_36 <= -34
f177: z3_3_37 = 0 -> x_3 - x_37 <= -35
f178: z3_3_38 = 0 -> x_3 - x_38 <= -36
f179: z3_3_39 = 0 -> x_3 - x_39 <= -37
f180: z3_3_40 = 0 -> x_3 - x_40 <= -38
f181: z3_3_41 = 0 -> x_3 - x_41 <= -39
f182: z3_3_42 = 0 -> x_3 - x_42 <= -40
f183: z3_3_43 = 0 -> x_3 - x_43 <= -41
f184: z3_3_44 = 0 -> x_3 - x_44 <= -42
f185: z3_3_45 = 0 -> x_3 - x_45 <= -43
f186: z3_3_46 = 0 -> x_3 - x_46 <= -44
f187: z3_3_47 = 0 -> x_3 - x_47 <= -45
f188: z3_3_48 = 0 -> x_3 - x_48 <= -46
f189: z3_3_49 = 0 -> x_3 - x_49 <= -47
f190: z3_4_5 = 0 -> x_4 - x_5 <= -2
f191: z3_4_6 = 0 -> x_4 - x_6 <= -3
f192: z3_4_7 = 0 -> x_4 - x_7 <= -4
f193: z3_4_8 = 0 -> x_4 - x_8 <= -5
f194: z3_4_9 = 0 -> x_4 - x_9 <= -6
f195: z3_4_10 = 0 -> x_4 - x_10 <= -7
f196: z3_4_11 = 0 -> x_4 - x_11 <= -8
f197: z3_4_12 = 0 -> x_4 - x_12 <= -9
f198: z3_4_13 = 0 -> x_4 - x_13 <= -10
f199: z3_4_14 = 0 -> x_4 - x_14 <= -11
f200: z3_4_15 = 0 -> x_4 - x_15 <= -12
f201: z3_4_16 = 0 -> x_4 - x_16 <= -13
f202: z3_4_17 = 0 -> x_4 - x_17 <= -14
f203: z3_4_18 = 0 -> x_4 - x_18 <= -15
f204: z3_4_19 = 0 -> x_4 - x_19 <= -16
f205: z3_4_20 = 0 -> x_4 - x_20 <= -17
f206: z3_4_21 = 0 -> x_4 - x_21 <= -18
f207: z3_4_22 = 0 -> x_4 - x_22 <= -19
f208: z3_4_23 = 0 -> x_4 - x_23 <= -20
f209: z3_4_24 = 0 -> x_4 - x_24 <= -21
f210: z3_4_25 = 0 -> x_4 - x_25 <= -22
f211: z3_4_26 = 0 -> x_4 - x_26 <= -23
f212: z3_4_27 = 0 -> x_4 - x_27 <= -24
f213: z3_4_28 = 0 -> x_4 - x_28 <= -25
f214: z3_4_29 = 0 -> x_4 - x_29 <= -26
f215: z3_4_30 = 0 -> x_4 - x_30 <= -27
f216: z3_4_31 = 0 -> x_4 - x_31 <= -28
f217: z3_4_32 = 0 -> x_4 - x_32 <= -29
f218: z3_4_33 = 0 -> x_4 - x_33 <= -30
f219: z3_4_34 = 0 -> x_4 - x_34 <= -31
f220: z3_4_35 = 0 -> x_4 - x_35 <= -32
f221: z3_4_36 = 0 -> x_4 - x_36 <= -33
f222: z3_4_37 = 0 -> x_4 - x_37 <= -34
f223: z3_4_38 = 0 -> x_4 - x_38 <= -35
f224: z3_4_39 = 0 -> x_4 - x_39 <= -36
f225: z3_4_40 = 0 -> x_4 - x_40 <= -37
f226: z3_4_41 = 0 -> x_4 - x_41 <= -38
f227: z3_4_42 = 0 -> x_4 - x_42 <= -39
f228: z3_4_43 = 0 -> x_4 - x_43 <= -40
f229: z3_4_44 = 0 -> x_4 - x_44 <= -41
f230: z3_4_45 = 0 -> x_4 - x_45 <= -42
f231: z3_4_46 = 0 -> x_4 - x_46 <= -43
f232: z3_4_47 = 0 -> x_4 - x_47 <= -44
f233: z3_4_48 = 0 -> x_4 - x_48 <= -45
f234: z3_4_49 = 0 -> x_4 - x_49 <= -46
f235: z3_5_6 = 0 -> x_5 - x_6 <= -2
f236: z3_5_7 = 0 -> x_5 - x_7 <= -3
f237: z3_5_8 = 0 -> x_5 - x_8 <= -4
f238: z3_5_9 = 0 -> x_5 - x_9 <= -5
f239: z3_5_10 = 0 -> x_5 - x_10 <= -6
f240: z3_5_11 = 0 -> x_5 - x_11 <= -7
f241: z3_5_12 = 0 -> x_5 - x_12 <= -8
f242: z3_5_13 = 0 -> x_5 - x_13 <= -9
f243: z3_5_14 = 0 -> x_5 - x_14 <= -10
f244: z3_5_15 = 0 -> x_5 - x_15 <= -11
f245: z3_5_16 = 0 -> x_5 - x_16 <= -12
f246: z3_5_17 = 0 -> x_5 - x_17 <= -13
f247: z3_5_18 = 0 -> x_5 - x_18 <= -14
f248: z3_5_19 = 0 -> x_5 - x_19 <= -15
f249: z3_5_20 = 0 -> x_5 - x_20 <= -16
f250: z3_5_21 = 0 -> x_5 - x_21 <= -17
f251: z3_5_22 = 0 -> x_5 - x_22 <= -18
f252: z3_5_23 = 0 -> x_5 - x_23 <= -19
f253: z3_5_24 = 0 -> x_5 - x_24 <= -20
f254: z3_5_25 = 0 -> x_5 - x_25 <= -21
f255: z3_5_26 = 0 -> x_5 - x_26 <= -22
f256: z3_5_27 = 0 -> x_5 - x_27 <= -23
f257: z3_5_28 = 0 -> x_5 - x_28 <= -24
f258: z3_5_29 = 0 -> x_5 - x_29 <= -25
f259: z3_5_30 = 0 -> x_5 - x_30 <= -26
f260: z3_5_31 = 0 -> x_5 - x_31 <= -27
f261: z3_5_32 = 0 -> x_5 - x_32 <= -28
f262: z3_5_33 = 0 -> x_5 - x_33 <= -29
f263: z3_5_34 = 0 -> x_5 - x_34 <= -30
f264: z3_5_35 = 0 -> x_5 - x_35 <= -31
f265: z3_5_36 = 0 -> x_5 - x_36 <= -32
f266: z3_5_37 = 0 -> x_5 - x_37 <= -33
f267: z3_5_38 = 0 -> x_5 - x_38 <= -34
f268: z3_5_39 = 0 -> x_5 - x_39 <= -35
f269: z3_5_40 = 0 -> x_5 - x_40 <= -36
f270: z3_5_41 = 0 -> x_5 - x_41 <= -37
f271: z3_5_42 = 0 -> x_5 - x_42 <= -38
f272: z3_5_43 = 0 -> x_5 - x_43 <= -39
f273: z3_5_44 = 0 -> x_5 - x_44 <= -40
f274: z3_5_45 = 0 -> x_5 - x_45 <= -41
f275: z3_5_46 = 0 -> x_5 - x_46 <= -42
f276: z3_5_47 = 0 -> x_5 - x_47 <= -43
f277: z3_5_48 = 0 -> x_5 - x_48 <= -44
f278: z3_5_49 = 0 -> x_5 - x_49 <= -45
f279: z3_6_7 = 0 -> x_6 - x_7 <= -2
f280: z3_6_8 = 0 -> x_6 - x_8 <= -3
f281: z3_6_9 = 0 -> x_6 - x_9 <= -4
f282: z3_6_10 = 0 -> x_6 - x_10 <= -5
f283: z3_6_11 = 0 -> x_6 - x_11 <= -6
f284: z3_6_12 = 0 -> x_6 - x_12 <= -7
f285: z3_6_13 = 0 -> x_6 - x_13 <= -8
f286: z3_6_14 = 0 -> x_6 - x_14 <= -9
f287: z3_6_15 = 0 -> x_6 - x_15 <= -10
f288: z3_6_16 = 0 -> x_6 - x_16 <= -11
f289: z3_6_17 = 0 -> x_6 - x_17 <= -12
f290: z3_6_18 = 0 -> x_6 - x_18 <= -13
f291: z3_6_19 = 0 -> x_6 - x_19 <= -14
f292: z3_6_20 = 0 -> x_6 - x_20 <= -15
f293: z3_6_21 = 0 -> x_6 - x_21 <= -16
f294: z3_6_22 = 0 -> x_6 - x_22 <= -17
f295: z3_6_23 = 0 -> x_6 - x_23 <= -18
f296: z3_6_24 = 0 -> x_6 - x_24 <= -19
f297: z3_6_25 = 0 -> x_6 - x_25 <= -20
f298: z3_6_26 = 0 -> x_6 - x_26 <= -21
f299: z3_6_27 = 0 -> x_6 - x_27 <= -22
f300: z3_6_28 = 0 -> x_6 - x_28 <= -23
f301: z3_6_29 = 0 -> x_6 - x_29 <= -24
f302: z3_6_30 = 0 -> x_6 - x_30 <= -25
f303: z3_6_31 = 0 -> x_6 - x_31 <= -26
f304: z3_6_32 = 0 -> x_6 - x_32 <= -27
f305: z3_6_33 = 0 -> x_6 - x_33 <= -28
f306: z3_6_34 = 0 -> x_6 - x_34 <= -29
f307: z3_6_35 = 0 -> x_6 - x_35 <= -30
f308: z3_6_36 = 0 -> x_6 - x_36 <= -31
f309: z3_6_37 = 0 -> x_6 - x_37 <= -32
f310: z3_6_38 = 0 -> x_6 - x_38 <= -33
f311: z3_6_39 = 0 -> x_6 - x_39 <= -34
f312: z3_6_40 = 0 -> x_6 - x_40 <= -35
f313: z3_6_41 = 0 -> x_6 - x_41 <= -36
f314: z3_6_42 = 0 -> x_6 - x_42 <= -37
f315: z3_6_43 = 0 -> x_6 - x_43 <= -38
f316: z3_6_44 = 0 -> x_6 - x_44 <= -39
f317: z3_6_45 = 0 -> x_6 - x_45 <= -40
f318: z3_6_46 = 0 -> x_6 - x_46 <= -41
f319: z3_6_47 = 0 -> x_6 - x_47 <= -42
f320: z3_6_48 = 0 -> x_6 - x_48 <= -43
f321: z3_6_49 = 0 -> x_6 - x_49 <= -44
f322: z3_7_8 = 0 -> x_7 - x_8 <= -2
f323: z3_7_9 = 0 -> x_7 - x_9 <= -3
f324: z3_7_10 = 0 -> x_7 - x_10 <= -4
f325: z3_7_11 = 0 -> x_7 - x_11 <= -5
f326: z3_7_12 = 0 -> x_7 - x_12 <= -6
f327: z3_7_13 = 0 -> x_7 - x_13 <= -7
f328: z3_7_14 = 0 -> x_7 - x_14 <= -8
f329: z3_7_15 = 0 -> x_7 - x_15 <= -9
f330: z3_7_16 = 0 -> x_7 - x_16 <= -10
f331: z3_7_17 = 0 -> x_7 - x_17 <= -11
f332: z3_7_18 = 0 -> x_7 - x_18 <= -12
f333: z3_7_19 = 0 -> x_7 - x_19 <= -13
f334: z3_7_20 = 0 -> x_7 - x_20 <= -14
f335: z3_7_21 = 0 -> x_7 - x_21 <= -15
f336: z3_7_22 = 0 -> x_7 - x_22 <= -16
f337: z3_7_23 = 0 -> x_7 - x_23 <= -17
f338: z3_7_24 = 0 -> x_7 - x_24 <= -18
f339: z3_7_25 = 0 -> x_7 - x_25 <= -19
f340: z3_7_26 = 0 -> x_7 - x_26 <= -20
f341: z3_7_27 = 0 -> x_7 - x_27 <= -21
f342: z3_7_28 = 0 -> x_7 - x_28 <= -22
f343: z3_7_29 = 0 -> x_7 - x_29 <= -23
f344: z3_7_30 = 0 -> x_7 - x_30 <= -24
f345: z3_7_31 = 0 -> x_7 - x_31 <= -25
f346: z3_7_32 = 0 -> x_7 - x_32 <= -26
f347: z3_7_33 = 0 -> x_7 - x_33 <= -27
f348: z3_7_34 = 0 -> x_7 - x_34 <= -28
f349: z3_7_35 = 0 -> x_7 - x_35 <= -29
f350: z3_7_36 = 0 -> x_7 - x_36 <= -30
f351: z3_7_37 = 0 -> x_7 - x_37 <= -31
f352: z3_7_38 = 0 -> x_7 - x_38 <= -32
f353: z3_7_39 = 0 -> x_7 - x_39 <= -33
f354: z3_7_40 = 0 -> x_7 - x_40 <= -34
f355: z3_7_41 = 0 -> x_7 - x_41 <= -35
f356: z3_7_42 = 0 -> x_7 - x_42 <= -36
f357: z3_7_43 = 0 -> x_7 - x_43 <= -37
f358: z3_7_44 = 0 -> x_7 - x_44 <= -38
f359: z3_7_45 = 0 -> x_7 - x_45 <= -39
f360: z3_7_46 = 0 -> x_7 - x_46 <= -40
f361: z3_7_47 = 0 -> x_7 - x_47 <= -41
f362: z3_7_48 = 0 -> x_7 - x_48 <= -42
f363: z3_7_49 = 0 -> x_7 - x_49 <= -43
f364: z3_8_9 = 0 -> x_8 - x_9 <= -2
f365: z3_8_10 = 0 -> x_8 - x_10 <= -3
f366: z3_8_11 = 0 -> x_8 - x_11 <= -4
f367: z3_8_12 = 0 -> x_8 - x_12 <= -5
f368: z3_8_13 = 0 -> x_8 - x_13 <= -6
f369: z3_8_14 = 0 -> x_8 - x_14 <= -7
f370: z3_8_15 = 0 -> x_8 - x_15 <= -8
f371: z3_8_16 = 0 -> x_8 - x_16 <= -9
f372: z3_8_17 = 0 -> x_8 - x_17 <= -10
f373: z3_8_18 = 0 -> x_8 - x_18 <= -11
f374: z3_8_19 = 0 -> x_8 - x_19 <= -12
f375: z3_8_20 = 0 -> x_8 - x_20 <= -13
f376: z3_8_21 = 0 -> x_8 - x_21 <= -14
f377: z3_8_22 = 0 -> x_8 - x_22 <= -15
f378: z3_8_23 = 0 -> x_8 - x_23 <= -16
f379: z3_8_24 = 0 -> x_8 - x_24 <= -17
f380: z3_8_25 = 0 -> x_8 - x_25 <= -18
f381: z3_8_26 = 0 -> x_8 - x_26 <= -19
f382: z3_8_27 = 0 -> x_8 - x_27 <= -20
f383: z3_8_28 = 0 -> x_8 - x_28 <= -21
f384: z3_8_29 = 0 -> x_8 - x_29 <= -22
f385: z3_8_30 = 0 -> x_8 - x_30 <= -23
f386: z3_8_31 = 0 -> x_8 - x_31 <= -24
f387: z3_8_32 = 0 -> x_8 - x_32 <= -25
f388: z3_8_33 = 0 -> x_8 - x_33 <= -26
f389: z3_8_34 = 0 -> x_8 - x_34 <= -27
f390: z3_8_35 = 0 -> x_8 - x_35 <= -28
f391: z3_8_36 = 0 -> x_8 - x_36 <= -29
f392: z3_8_37 = 0 -> x_8 - x_37 <= -30
f393: z3_8_38 = 0 -> x_8 - x_38 <= -31
f394: z3_8_39 = 0 -> x_8 - x_39 <= -32
f395: z3_8_40 = 0 -> x_8 - x_40 <= -33
f396: z3_8_41 = 0 -> x_8 - x_41 <= -34
f397: z3_8_42 = 0 -> x_8 - x_42 <= -35
f398: z3_8_43 = 0 -> x_8 - x_43 <= -36
f399: z3_8_44 = 0 -> x_8 - x_44 <= -37
f400: z3_8_45 = 0 -> x_8 - x_45 <= -38
f401: z3_8_46 = 0 -> x_8 - x_46 <= -39
f402: z3_8_47 = 0 -> x_8 - x_47 <= -40
f403: z3_8_48 = 0 -> x_8 - x_48 <= -41
f404: z3_8_49 = 0 -> x_8 - x_49 <= -42
f405: z3_9_10 = 0 -> x_9 - x_10 <= -2
f406: z3_9_11 = 0 -> x_9 - x_11 <= -3
f407: z3_9_12 = 0 -> x_9 - x_12 <= -4
f408: z3_9_13 = 0 -> x_9 - x_13 <= -5
f409: z3_9_14 = 0 -> x_9 - x_14 <= -6
f410: z3_9_15 = 0 -> x_9 - x_15 <= -7
f411: z3_9_16 = 0 -> x_9 - x_16 <= -8
f412: z3_9_17 = 0 -> x_9 - x_17 <= -9
f413: z3_9_18 = 0 -> x_9 - x_18 <= -10
f414: z3_9_19 = 0 -> x_9 - x_19 <= -11
f415: z3_9_20 = 0 -> x_9 - x_20 <= -12
f416: z3_9_21 = 0 -> x_9 - x_21 <= -13
f417: z3_9_22 = 0 -> x_9 - x_22 <= -14
f418: z3_9_23 = 0 -> x_9 - x_23 <= -15
f419: z3_9_24 = 0 -> x_9 - x_24 <= -16
f420: z3_9_25 = 0 -> x_9 - x_25 <= -17
f421: z3_9_26 = 0 -> x_9 - x_26 <= -18
f422: z3_9_27 = 0 -> x_9 - x_27 <= -19
f423: z3_9_28 = 0 -> x_9 - x_28 <= -20
f424: z3_9_29 = 0 -> x_9 - x_29 <= -21
f425: z3_9_30 = 0 -> x_9 - x_30 <= -22
f426: z3_9_31 = 0 -> x_9 - x_31 <= -23
f427: z3_9_32 = 0 -> x_9 - x_32 <= -24
f428: z3_9_33 = 0 -> x_9 - x_33 <= -25
f429: z3_9_34 = 0 -> x_9 - x_34 <= -26
f430: z3_9_35 = 0 -> x_9 - x_35 <= -27
f431: z3_9_36 = 0 -> x_9 - x_36 <= -28
f432: z3_9_37 = 0 -> x_9 - x_37 <= -29
f433: z3_9_38 = 0 -> x_9 - x_38 <= -30
f434: z3_9_39 = 0 -> x_9 - x_39 <= -31
f435: z3_9_40 = 0 -> x_9 - x_40 <= -32
f436: z3_9_41 = 0 -> x_9 - x_41 <= -33
f437: z3_9_42 = 0 -> x_9 - x_42 <= -34
f438: z3_9_43 = 0 -> x_9 - x_43 <= -35
f439: z3_9_44 = 0 -> x_9 - x_44 <= -36
f440: z3_9_45 = 0 -> x_9 - x_45 <= -37
f441: z3_9_46 = 0 -> x_9 - x_46 <= -38
f442: z3_9_47 = 0 -> x_9 - x_47 <= -39
f443: z3_9_48 = 0 -> x_9 - x_48 <= -40
f444: z3_9_49 = 0 -> x_9 - x_49 <= -41
f445: z3_10_11 = 0 -> x_10 - x_11 <= -2
f446: z3_10_12 = 0 -> x_10 - x_12 <= -3
f447: z3_10_13 = 0 -> x_10 - x_13 <= -4
f448: z3_10_14 = 0 -> x_10 - x_14 <= -5
f449: z3_10_15 = 0 -> x_10 - x_15 <= -6
f450: z3_10_16 = 0 -> x_10 - x_16 <= -7
f451: z3_10_17 = 0 -> x_10 - x_17 <= -8
f452: z3_10_18 = 0 -> x_10 - x_18 <= -9
f453: z3_10_19 = 0 -> x_10 - x_19 <= -10
f454: z3_10_20 = 0 -> x_10 - x_20 <= -11
f455: z3_10_21 = 0 -> x_10 - x_21 <= -12
f456: z3_10_22 = 0 -> x_10 - x_22 <= -13
f457: z3_10_23 = 0 -> x_10 - x_23 <= -14
f458: z3_10_24 = 0 -> x_10 - x_24 <= -15
f459: z3_10_25 = 0 -> x_10 - x_25 <= -16
f460: z3_10_26 = 0 -> x_10 - x_26 <= -17
f461: z3_10_27 = 0 -> x_10 - x_27 <= -18
f462: z3_10_28 = 0 -> x_10 - x_28 <= -19
f463: z3_10_29 = 0 -> x_10 - x_29 <= -20
f464: z3_10_30 = 0 -> x_10 - x_30 <= -21
f465: z3_10_31 = 0 -> x_10 - x_31 <= -22
f466: z3_10_32 = 0 -> x_10 - x_32 <= -23
f467: z3_10_33 = 0 -> x_10 - x_33 <= -24
f468: z3_10_34 = 0 -> x_10 - x_34 <= -25
f469: z3_10_35 = 0 -> x_10 - x_35 <= -26
f470: z3_10_36 = 0 -> x_10 - x_36 <= -27
f471: z3_10_37 = 0 -> x_10 - x_37 <= -28
f472: z3_10_38 = 0 -> x_10 - x_38 <= -29
f473: z3_10_39 = 0 -> x_10 - x_39 <= -30
f474: z3_10_40 = 0 -> x_10 - x_40 <= -31
f475: z3_10_41 = 0 -> x_10 - x_41 <= -32
f476: z3_10_42 = 0 -> x_10 - x_42 <= -33
f477: z3_10_43 = 0 -> x_10 - x_43 <= -34
f478: z3_10_44 = 0 -> x_10 - x_44 <= -35
f479: z3_10_45 = 0 -> x_10 - x_45 <= -36
f480: z3_10_46 = 0 -> x_10 - x_46 <= -37
f481: z3_10_47 = 0 -> x_10 - x_47 <= -38
f482: z3_10_48 = 0 -> x_10 - x_48 <= -39
f483: z3_10_49 = 0 -> x_10 - x_49 <= -40
f484: z3_11_12 = 0 -> x_11 - x_12 <= -2
f485: z3_11_13 = 0 -> x_11 - x_13 <= -3
f486: z3_11_14 = 0 -> x_11 - x_14 <= -4
f487: z3_11_15 = 0 -> x_11 - x_15 <= -5
f488: z3_11_16 = 0 -> x_11 - x_16 <= -6
f489: z3_11_17 = 0 -> x_11 - x_17 <= -7
f490: z3_11_18 = 0 -> x_11 - x_18 <= -8
f491: z3_11_19 = 0 -> x_11 - x_19 <= -9
f492: z3_11_20 = 0 -> x_11 - x_20 <= -10
f493: z3_11_21 = 0 -> x_11 - x_21 <= -11
f494: z3_11_22 = 0 -> x_11 - x_22 <= -12
f495: z3_11_23 = 0 -> x_11 - x_23 <= -13
f496: z3_11_24 = 0 -> x_11 - x_24 <= -14
f497: z3_11_25 = 0 -> x_11 - x_25 <= -15
f498: z3_11_26 = 0 -> x_11 - x_26 <= -16
f499: z3_11_27 = 0 -> x_11 - x_27 <= -17
f500: z3_11_28 = 0 -> x_11 - x_28 <= -18
f501: z3_11_29 = 0 -> x_11 - x_29 <= -19
f502: z3_11_30 = 0 -> x_11 - x_30 <= -20
f503: z3_11_31 = 0 -> x_11 - x_31 <= -21
f504: z3_11_32 = 0 -> x_11 - x_32 <= -22
f505: z3_11_33 = 0 -> x_11 - x_33 <= -23
f506: z3_11_34 = 0 -> x_11 - x_34 <= -24
f507: z3_11_35 = 0 -> x_11 - x_35 <= -25
f508: z3_11_36 = 0 -> x_11 - x_36 <= -26
f509: z3_11_37 = 0 -> x_11 - x_37 <= -27
f510: z3_11_38 = 0 -> x_11 - x_38 <= -28
f511: z3_11_39 = 0 -> x_11 - x_39 <= -29
f512: z3_11_40 = 0 -> x_11 - x_40 <= -30
f513: z3_11_41 = 0 -> x_11 - x_41 <= -31
f514: z3_11_42 = 0 -> x_11 - x_42 <= -32
f515: z3_11_43 = 0 -> x_11 - x_43 <= -33
f516: z3_11_44 = 0 -> x_11 - x_44 <= -34
f517: z3_11_45 = 0 -> x_11 - x_45 <= -35
f518: z3_11_46 = 0 -> x_11 - x_46 <= -36
f519: z3_11_47 = 0 -> x_11 - x_47 <= -37
f520: z3_11_48 = 0 -> x_11 - x_48 <= -38
f521: z3_11_49 = 0 -> x_11 - x_49 <= -39
f522: z3_12_13 = 0 -> x_12 - x_13 <= -2
f523: z3_12_14 = 0 -> x_12 - x_14 <= -3
f524: z3_12_15 = 0 -> x_12 - x_15 <= -4
f525: z3_12_16 = 0 -> x_12 - x_16 <= -5
f526: z3_12_17 = 0 -> x_12 - x_17 <= -6
f527: z3_12_18 = 0 -> x_12 - x_18 <= -7
f528: z3_12_19 = 0 -> x_12 - x_19 <= -8
f529: z3_12_20 = 0 -> x_12 - x_20 <= -9
f530: z3_12_21 = 0 -> x_12 - x_21 <= -10
f531: z3_12_22 = 0 -> x_12 - x_22 <= -11
f532: z3_12_23 = 0 -> x_12 - x_23 <= -12
f533: z3_12_24 = 0 -> x_12 - x_24 <= -13
f534: z3_12_25 = 0 -> x_12 - x_25 <= -14
f535: z3_12_26 = 0 -> x_12 - x_26 <= -15
f536: z3_12_27 = 0 -> x_12 - x_27 <= -16
f537: z3_12_28 = 0 -> x_12 - x_28 <= -17
f538: z3_12_29 = 0 -> x_12 - x_29 <= -18
f539: z3_12_30 = 0 -> x_12 - x_30 <= -19
f540: z3_12_31 = 0 -> x_12 - x_31 <= -20
f541: z3_12_32 = 0 -> x_12 - x_32 <= -21
f542: z3_12_33 = 0 -> x_12 - x_33 <= -22
f543: z3_12_34 = 0 -> x_12 - x_34 <= -23
f544: z3_12_35 = 0 -> x_12 - x_35 <= -24
f545: z3_12_36 = 0 -> x_12 - x_36 <= -25
f546: z3_12_37 = 0 -> x_12 - x_37 <= -26
f547: z3_12_38 = 0 -> x_12 - x_38 <= -27
f548: z3_12_39 = 0 -> x_12 - x_39 <= -28
f549: z3_12_40 = 0 -> x_12 - x_40 <= -29
f550: z3_12_41 = 0 -> x_12 - x_41 <= -30
f551: z3_12_42 = 0 -> x_12 - x_42 <= -31
f552: z3_12_43 = 0 -> x_12 - x_43 <= -32
f553: z3_12_44 = 0 -> x_12 - x_44 <= -33
f554: z3_12_45 = 0 -> x_12 - x_45 <= -34
f555: z3_12_46 = 0 -> x_12 - x_46 <= -35
f556: z3_12_47 = 0 -> x_12 - x_47 <= -36
f557: z3_12_48 = 0 -> x_12 - x_48 <= -37
f558: z3_12_49 = 0 -> x_12 - x_49 <= -38
f559: z3_13_14 = 0 -> x_13 - x_14 <= -2
f560: z3_13_15 = 0 -> x_13 - x_15 <= -3
f561: z3_13_16 = 0 -> x_13 - x_16 <= -4
f562: z3_13_17 = 0 -> x_13 - x_17 <= -5
f563: z3_13_18 = 0 -> x_13 - x_18 <= -6
f564: z3_13_19 = 0 -> x_13 - x_19 <= -7
f565: z3_13_20 = 0 -> x_13 - x_20 <= -8
f566: z3_13_21 = 0 -> x_13 - x_21 <= -9
f567: z3_13_22 = 0 -> x_13 - x_22 <= -10
f568: z3_13_23 = 0 -> x_13 - x_23 <= -11
f569: z3_13_24 = 0 -> x_13 - x_24 <= -12
f570: z3_13_25 = 0 -> x_13 - x_25 <= -13
f571: z3_13_26 = 0 -> x_13 - x_26 <= -14
f572: z3_13_27 = 0 -> x_13 - x_27 <= -15
f573: z3_13_28 = 0 -> x_13 - x_28 <= -16
f574: z3_13_29 = 0 -> x_13 - x_29 <= -17
f575: z3_13_30 = 0 -> x_13 - x_30 <= -18
f576: z3_13_31 = 0 -> x_13 - x_31 <= -19
f577: z3_13_32 = 0 -> x_13 - x_32 <= -20
f578: z3_13_33 = 0 -> x_13 - x_33 <= -21
f579: z3_13_34 = 0 -> x_13 - x_34 <= -22
f580: z3_13_35 = 0 -> x_13 - x_35 <= -23
f581: z3_13_36 = 0 -> x_13 - x_36 <= -24
f582: z3_13_37 = 0 -> x_13 - x_37 <= -25
f583: z3_13_38 = 0 -> x_13 - x_38 <= -26
f584: z3_13_39 = 0 -> x_13 - x_39 <= -27
f585: z3_13_40 = 0 -> x_13 - x_40 <= -28
f586: z3_13_41 = 0 -> x_13 - x_41 <= -29
f587: z3_13_42 = 0 -> x_13 - x_42 <= -30
f588: z3_13_43 = 0 -> x_13 - x_43 <= -31
f589: z3_13_44 = 0 -> x_13 - x_44 <= -32
f590: z3_13_45 = 0 -> x_13 - x_45 <= -33
f591: z3_13_46 = 0 -> x_13 - x_46 <= -34
f592: z3_13_47 = 0 -> x_13 - x_47 <= -35
f593: z3_13_48 = 0 -> x_13 - x_48 <= -36
f594: z3_13_49 = 0 -> x_13 - x_49 <= -37
f595: z3_14_15 = 0 -> x_14 - x_15 <= -2
f596: z3_14_16 = 0 -> x_14 - x_16 <= -3
f597: z3_14_17 = 0 -> x_14 - x_17 <= -4
f598: z3_14_18 = 0 -> x_14 - x_18 <= -5
f599: z3_14_19 = 0 -> x_14 - x_19 <= -6
f600: z3_14_20 = 0 -> x_14 - x_20 <= -7
f601: z3_14_21 = 0 -> x_14 - x_21 <= -8
f602: z3_14_22 = 0 -> x_14 - x_22 <= -9
f603: z3_14_23 = 0 -> x_14 - x_23 <= -10
f604: z3_14_24 = 0 -> x_14 - x_24 <= -11
f605: z3_14_25 = 0 -> x_14 - x_25 <= -12
f606: z3_14_26 = 0 -> x_14 - x_26 <= -13
f607: z3_14_27 = 0 -> x_14 - x_27 <= -14
f608: z3_14_28 = 0 -> x_14 - x_28 <= -15
f609: z3_14_29 = 0 -> x_14 - x_29 <= -16
f610: z3_14_30 = 0 -> x_14 - x_30 <= -17
f611: z3_14_31 = 0 -> x_14 - x_31 <= -18
f612: z3_14_32 = 0 -> x_14 - x_32 <= -19
f613: z3_14_33 = 0 -> x_14 - x_33 <= -20
f614: z3_14_34 = 0 -> x_14 - x_34 <= -21
f615: z3_14_35 = 0 -> x_14 - x_35 <= -22
f616: z3_14_36 = 0 -> x_14 - x_36 <= -23
f617: z3_14_37 = 0 -> x_14 - x_37 <= -24
f618: z3_14_38 = 0 -> x_14 - x_38 <= -25
f619: z3_14_39 = 0 -> x_14 - x_39 <= -26
f620: z3_14_40 = 0 -> x_14 - x_40 <= -27
f621: z3_14_41 = 0 -> x_14 - x_41 <= -28
f622: z3_14_42 = 0 -> x_14 - x_42 <= -29
f623: z3_14_43 = 0 -> x_14 - x_43 <= -30
f624: z3_14_44 = 0 -> x_14 - x_44 <= -31
f625: z3_14_45 = 0 -> x_14 - x_45 <= -32
f626: z3_14_46 = 0 -> x_14 - x_46 <= -33
f627: z3_14_47 = 0 -> x_14 - x_47 <= -34
f628: z3_14_48 = 0 -> x_14 - x_48 <= -35
f629: z3_14_49 = 0 -> x_14 - x_49 <= -36
f630: z3_15_16 = 0 -> x_15 - x_16 <= -2
f631: z3_15_17 = 0 -> x_15 - x_17 <= -3
f632: z3_15_18 = 0 -> x_15 - x_18 <= -4
f633: z3_15_19 = 0 -> x_15 - x_19 <= -5
f634: z3_15_20 = 0 -> x_15 - x_20 <= -6
f635: z3_15_21 = 0 -> x_15 - x_21 <= -7
f636: z3_15_22 = 0 -> x_15 - x_22 <= -8
f637: z3_15_23 = 0 -> x_15 - x_23 <= -9
f638: z3_15_24 = 0 -> x_15 - x_24 <= -10
f639: z3_15_25 = 0 -> x_15 - x_25 <= -11
f640: z3_15_26 = 0 -> x_15 - x_26 <= -12
f641: z3_15_27 = 0 -> x_15 - x_27 <= -13
f642: z3_15_28 = 0 -> x_15 - x_28 <= -14
f643: z3_15_29 = 0 -> x_15 - x_29 <= -15
f644: z3_15_30 = 0 -> x_15 - x_30 <= -16
f645: z3_15_31 = 0 -> x_15 - x_31 <= -17
f646: z3_15_32 = 0 -> x_15 - x_32 <= -18
f647: z3_15_33 = 0 -> x_15 - x_33 <= -19
f648: z3_15_34 = 0 -> x_15 - x_34 <= -20
f649: z3_15_35 = 0 -> x_15 - x_35 <= -21
f650: z3_15_36 = 0 -> x_15 - x_36 <= -22
f651: z3_15_37 = 0 -> x_15 - x_37 <= -23
f652: z3_15_38 = 0 -> x_15 - x_38 <= -24
f653: z3_15_39 = 0 -> x_15 - x_39 <= -25
f654: z3_15_40 = 0 -> x_15 - x_40 <= -26
f655: z3_15_41 = 0 -> x_15 - x_41 <= -27
f656: z3_15_42 = 0 -> x_15 - x_42 <= -28
f657: z3_15_43 = 0 -> x_15 - x_43 <= -29
f658: z3_15_44 = 0 -> x_15 - x_44 <= -30
f659: z3_15_45 = 0 -> x_15 - x_45 <= -31
f660: z3_15_46 = 0 -> x_15 - x_46 <= -32
f661: z3_15_47 = 0 -> x_15 - x_47 <= -33
f662: z3_15_48 = 0 -> x_15 - x_48 <= -34
f663: z3_15_49 = 0 -> x_15 - x_49 <= -35
f664: z3_16_17 = 0 -> x_16 - x_17 <= -2
f665: z3_16_18 = 0 -> x_16 - x_18 <= -3
f666: z3_16_19 = 0 -> x_16 - x_19 <= -4
f667: z3_16_20 = 0 -> x_16 - x_20 <= -5
f668: z3_16_21 = 0 -> x_16 - x_21 <= -6
f669: z3_16_22 = 0 -> x_16 - x_22 <= -7
f670: z3_16_23 = 0 -> x_16 - x_23 <= -8
f671: z3_16_24 = 0 -> x_16 - x_24 <= -9
f672: z3_16_25 = 0 -> x_16 - x_25 <= -10
f673: z3_16_26 = 0 -> x_16 - x_26 <= -11
f674: z3_16_27 = 0 -> x_16 - x_27 <= -12
f675: z3_16_28 = 0 -> x_16 - x_28 <= -13
f676: z3_16_29 = 0 -> x_16 - x_29 <= -14
f677: z3_16_30 = 0 -> x_16 - x_30 <= -15
f678: z3_16_31 = 0 -> x_16 - x_31 <= -16
f679: z3_16_32 = 0 -> x_16 - x_32 <= -17
f680: z3_16_33 = 0 -> x_16 - x_33 <= -18
f681: z3_16_34 = 0 -> x_16 - x_34 <= -19
f682: z3_16_35 = 0 -> x_16 - x_35 <= -20
f683: z3_16_36 = 0 -> x_16 - x_36 <= -21
f684: z3_16_37 = 0 -> x_16 - x_37 <= -22
f685: z3_16_38 = 0 -> x_16 - x_38 <= -23
f686: z3_16_39 = 0 -> x_16 - x_39 <= -24
f687: z3_16_40 = 0 -> x_16 - x_40 <= -25
f688: z3_16_41 = 0 -> x_16 - x_41 <= -26
f689: z3_16_42 = 0 -> x_16 - x_42 <= -27
f690: z3_16_43 = 0 -> x_16 - x_43 <= -28
f691: z3_16_44 = 0 -> x_16 - x_44 <= -29
f692: z3_16_45 = 0 -> x_16 - x_45 <= -30
f693: z3_16_46 = 0 -> x_16 - x_46 <= -31
f694: z3_16_47 = 0 -> x_16 - x_47 <= -32
f695: z3_16_48 = 0 -> x_16 - x_48 <= -33
f696: z3_16_49 = 0 -> x_16 - x_49 <= -34
f697: z3_17_18 = 0 -> x_17 - x_18 <= -2
f698: z3_17_19 = 0 -> x_17 - x_19 <= -3
f699: z3_17_20 = 0 -> x_17 - x_20 <= -4
f700: z3_17_21 = 0 -> x_17 - x_21 <= -5
f701: z3_17_22 = 0 -> x_17 - x_22 <= -6
f702: z3_17_23 = 0 -> x_17 - x_23 <= -7
f703: z3_17_24 = 0 -> x_17 - x_24 <= -8
f704: z3_17_25 = 0 -> x_17 - x_25 <= -9
f705: z3_17_26 = 0 -> x_17 - x_26 <= -10
f706: z3_17_27 = 0 -> x_17 - x_27 <= -11
f707: z3_17_28 = 0 -> x_17 - x_28 <= -12
f708: z3_17_29 = 0 -> x_17 - x_29 <= -13
f709: z3_17_30 = 0 -> x_17 - x_30 <= -14
f710: z3_17_31 = 0 -> x_17 - x_31 <= -15
f711: z3_17_32 = 0 -> x_17 - x_32 <= -16
f712: z3_17_33 = 0 -> x_17 - x_33 <= -17
f713: z3_17_34 = 0 -> x_17 - x_34 <= -18
f714: z3_17_35 = 0 -> x_17 - x_35 <= -19
f715: z3_17_36 = 0 -> x_17 - x_36 <= -20
f716: z3_17_37 = 0 -> x_17 - x_37 <= -21
f717: z3_17_38 = 0 -> x_17 - x_38 <= -22
f718: z3_17_39 = 0 -> x_17 - x_39 <= -23
f719: z3_17_40 = 0 -> x_17 - x_40 <= -24
f720: z3_17_41 = 0 -> x_17 - x_41 <= -25
f721: z3_17_42 = 0 -> x_17 - x_42 <= -26
f722: z3_17_43 = 0 -> x_17 - x_43 <= -27
f723: z3_17_44 = 0 -> x_17 - x_44 <= -28
f724: z3_17_45 = 0 -> x_17 - x_45 <= -29
f725: z3_17_46 = 0 -> x_17 - x_46 <= -30
f726: z3_17_47 = 0 -> x_17 - x_47 <= -31
f727: z3_17_48 = 0 -> x_17 - x_48 <= -32
f728: z3_17_49 = 0 -> x_17 - x_49 <= -33
f729: z3_18_19 = 0 -> x_18 - x_19 <= -2
f730: z3_18_20 = 0 -> x_18 - x_20 <= -3
f731: z3_18_21 = 0 -> x_18 - x_21 <= -4
f732: z3_18_22 = 0 -> x_18 - x_22 <= -5
f733: z3_18_23 = 0 -> x_18 - x_23 <= -6
f734: z3_18_24 = 0 -> x_18 - x_24 <= -7
f735: z3_18_25 = 0 -> x_18 - x_25 <= -8
f736: z3_18_26 = 0 -> x_18 - x_26 <= -9
f737: z3_18_27 = 0 -> x_18 - x_27 <= -10
f738: z3_18_28 = 0 -> x_18 - x_28 <= -11
f739: z3_18_29 = 0 -> x_18 - x_29 <= -12
f740: z3_18_30 = 0 -> x_18 - x_30 <= -13
f741: z3_18_31 = 0 -> x_18 - x_31 <= -14
f742: z3_18_32 = 0 -> x_18 - x_32 <= -15
f743: z3_18_33 = 0 -> x_18 - x_33 <= -16
f744: z3_18_34 = 0 -> x_18 - x_34 <= -17
f745: z3_18_35 = 0 -> x_18 - x_35 <= -18
f746: z3_18_36 = 0 -> x_18 - x_36 <= -19
f747: z3_18_37 = 0 -> x_18 - x_37 <= -20
f748: z3_18_38 = 0 -> x_18 - x_38 <= -21
f749: z3_18_39 = 0 -> x_18 - x_39 <= -22
f750: z3_18_40 = 0 -> x_18 - x_40 <= -23
f751: z3_18_41 = 0 -> x_18 - x_41 <= -24
f752: z3_18_42 = 0 -> x_18 - x_42 <= -25
f753: z3_18_43 = 0 -> x_18 - x_43 <= -26
f754: z3_18_44 = 0 -> x_18 - x_44 <= -27
f755: z3_18_45 = 0 -> x_18 - x_45 <= -28
f756: z3_18_46 = 0 -> x_18 - x_46 <= -29
f757: z3_18_47 = 0 -> x_18 - x_47 <= -30
f758: z3_18_48 = 0 -> x_18 - x_48 <= -31
f759: z3_18_49 = 0 -> x_18 - x_49 <= -32
f760: z3_19_20 = 0 -> x_19 - x_20 <= -2
f761: z3_19_21 = 0 -> x_19 - x_21 <= -3
f762: z3_19_22 = 0 -> x_19 - x_22 <= -4
f763: z3_19_23 = 0 -> x_19 - x_23 <= -5
f764: z3_19_24 = 0 -> x_19 - x_24 <= -6
f765: z3_19_25 = 0 -> x_19 - x_25 <= -7
f766: z3_19_26 = 0 -> x_19 - x_26 <= -8
f767: z3_19_27 = 0 -> x_19 - x_27 <= -9
f768: z3_19_28 = 0 -> x_19 - x_28 <= -10
f769: z3_19_29 = 0 -> x_19 - x_29 <= -11
f770: z3_19_30 = 0 -> x_19 - x_30 <= -12
f771: z3_19_31 = 0 -> x_19 - x_31 <= -13
f772: z3_19_32 = 0 -> x_19 - x_32 <= -14
f773: z3_19_33 = 0 -> x_19 - x_33 <= -15
f774: z3_19_34 = 0 -> x_19 - x_34 <= -16
f775: z3_19_35 = 0 -> x_19 - x_35 <= -17
f776: z3_19_36 = 0 -> x_19 - x_36 <= -18
f777: z3_19_37 = 0 -> x_19 - x_37 <= -19
f778: z3_19_38 = 0 -> x_19 - x_38 <= -20
f779: z3_19_39 = 0 -> x_19 - x_39 <= -21
f780: z3_19_40 = 0 -> x_19 - x_40 <= -22
f781: z3_19_41 = 0 -> x_19 - x_41 <= -23
f782: z3_19_42 = 0 -> x_19 - x_42 <= -24
f783: z3_19_43 = 0 -> x_19 - x_43 <= -25
f784: z3_19_44 = 0 -> x_19 - x_44 <= -26
f785: z3_19_45 = 0 -> x_19 - x_45 <= -27
f786: z3_19_46 = 0 -> x_19 - x_46 <= -28
f787: z3_19_47 = 0 -> x_19 - x_47 <= -29
f788: z3_19_48 = 0 -> x_19 - x_48 <= -30
f789: z3_19_49 = 0 -> x_19 - x_49 <= -31
f790: z3_20_21 = 0 -> x_20 - x_21 <= -2
f791: z3_20_22 = 0 -> x_20 - x_22 <= -3
f792: z3_20_23 = 0 -> x_20 - x_23 <= -4
f793: z3_20_24 = 0 -> x_20 - x_24 <= -5
f794: z3_20_25 = 0 -> x_20 - x_25 <= -6
f795: z3_20_26 = 0 -> x_20 - x_26 <= -7
f796: z3_20_27 = 0 -> x_20 - x_27 <= -8
f797: z3_20_28 = 0 -> x_20 - x_28 <= -9
f798: z3_20_29 = 0 -> x_20 - x_29 <= -10
f799: z3_20_30 = 0 -> x_20 - x_30 <= -11
f800: z3_20_31 = 0 -> x_20 - x_31 <= -12
f801: z3_20_32 = 0 -> x_20 - x_32 <= -13
f802: z3_20_33 = 0 -> x_20 - x_33 <= -14
f803: z3_20_34 = 0 -> x_20 - x_34 <= -15
f804: z3_20_35 = 0 -> x_20 - x_35 <= -16
f805: z3_20_36 = 0 -> x_20 - x_36 <= -17
f806: z3_20_37 = 0 -> x_20 - x_37 <= -18
f807: z3_20_38 = 0 -> x_20 - x_38 <= -19
f808: z3_20_39 = 0 -> x_20 - x_39 <= -20
f809: z3_20_40 = 0 -> x_20 - x_40 <= -21
f810: z3_20_41 = 0 -> x_20 - x_41 <= -22
f811: z3_20_42 = 0 -> x_20 - x_42 <= -23
f812: z3_20_43 = 0 -> x_20 - x_43 <= -24
f813: z3_20_44 = 0 -> x_20 - x_44 <= -25
f814: z3_20_45 = 0 -> x_20 - x_45 <= -26
f815: z3_20_46 = 0 -> x_20 - x_46 <= -27
f816: z3_20_47 = 0 -> x_20 - x_47 <= -28
f817: z3_20_48 = 0 -> x_20 - x_48 <= -29
f818: z3_20_49 = 0 -> x_20 - x_49 <= -30
f819: z3_21_22 = 0 -> x_21 - x_22 <= -2
f820: z3_21_23 = 0 -> x_21 - x_23 <= -3
f821: z3_21_24 = 0 -> x_21 - x_24 <= -4
f822: z3_21_25 = 0 -> x_21 - x_25 <= -5
f823: z3_21_26 = 0 -> x_21 - x_26 <= -6
f824: z3_21_27 = 0 -> x_21 - x_27 <= -7
f825: z3_21_28 = 0 -> x_21 - x_28 <= -8
f826: z3_21_29 = 0 -> x_21 - x_29 <= -9
f827: z3_21_30 = 0 -> x_21 - x_30 <= -10
f828: z3_21_31 = 0 -> x_21 - x_31 <= -11
f829: z3_21_32 = 0 -> x_21 - x_32 <= -12
f830: z3_21_33 = 0 -> x_21 - x_33 <= -13
f831: z3_21_34 = 0 -> x_21 - x_34 <= -14
f832: z3_21_35 = 0 -> x_21 - x_35 <= -15
f833: z3_21_36 = 0 -> x_21 - x_36 <= -16
f834: z3_21_37 = 0 -> x_21 - x_37 <= -17
f835: z3_21_38 = 0 -> x_21 - x_38 <= -18
f836: z3_21_39 = 0 -> x_21 - x_39 <= -19
f837: z3_21_40 = 0 -> x_21 - x_40 <= -20
f838: z3_21_41 = 0 -> x_21 - x_41 <= -21
f839: z3_21_42 = 0 -> x_21 - x_42 <= -22
f840: z3_21_43 = 0 -> x_21 - x_43 <= -23
f841: z3_21_44 = 0 -> x_21 - x_44 <= -24
f842: z3_21_45 = 0 -> x_21 - x_45 <= -25
f843: z3_21_46 = 0 -> x_21 - x_46 <= -26
f844: z3_21_47 = 0 -> x_21 - x_47 <= -27
f845: z3_21_48 = 0 -> x_21 - x_48 <= -28
f846: z3_21_49 = 0 -> x_21 - x_49 <= -29
f847: z3_22_23 = 0 -> x_22 - x_23 <= -2
f848: z3_22_24 = 0 -> x_22 - x_24 <= -3
f849: z3_22_25 = 0 -> x_22 - x_25 <= -4
f850: z3_22_26 = 0 -> x_22 - x_26 <= -5
f851: z3_22_27 = 0 -> x_22 - x_27 <= -6
f852: z3_22_28 = 0 -> x_22 - x_28 <= -7
f853: z3_22_29 = 0 -> x_22 - x_29 <= -8
f854: z3_22_30 = 0 -> x_22 - x_30 <= -9
f855: z3_22_31 = 0 -> x_22 - x_31 <= -10
f856: z3_22_32 = 0 -> x_22 - x_32 <= -11
f857: z3_22_33 = 0 -> x_22 - x_33 <= -12
f858: z3_22_34 = 0 -> x_22 - x_34 <= -13
f859: z3_22_35 = 0 -> x_22 - x_35 <= -14
f860: z3_22_36 = 0 -> x_22 - x_36 <= -15
f861: z3_22_37 = 0 -> x_22 - x_37 <= -16
f862: z3_22_38 = 0 -> x_22 - x_38 <= -17
f863: z3_22_39 = 0 -> x_22 - x_39 <= -18
f864: z3_22_40 = 0 -> x_22 - x_40 <= -19
f865: z3_22_41 = 0 -> x_22 - x_41 <= -20
f866: z3_22_42 = 0 -> x_22 - x_42 <= -21
f867: z3_22_43 = 0 -> x_22 - x_43 <= -22
f868: z3_22_44 = 0 -> x_22 - x_44 <= -23
f869: z3_22_45 = 0 -> x_22 - x_45 <= -24
f870: z3_22_46 = 0 -> x_22 - x_46 <= -25
f871: z3_22_47 = 0 -> x_22 - x_47 <= -26
f872: z3_22_48 = 0 -> x_22 - x_48 <= -27
f873: z3_22_49 = 0 -> x_22 - x_49 <= -28
f874: z3_23_24 = 0 -> x_23 - x_24 <= -2
f875: z3_23_25 = 0 -> x_23 - x_25 <= -3
f876: z3_23_26 = 0 -> x_23 - x_26 <= -4
f877: z3_23_27 = 0 -> x_23 - x_27 <= -5
f878: z3_23_28 = 0 -> x_23 - x_28 <= -6
f879: z3_23_29 = 0 -> x_23 - x_29 <= -7
f880: z3_23_30 = 0 -> x_23 - x_30 <= -8
f881: z3_23_31 = 0 -> x_23 - x_31 <= -9
f882: z3_23_32 = 0 -> x_23 - x_32 <= -10
f883: z3_23_33 = 0 -> x_23 - x_33 <= -11
f884: z3_23_34 = 0 -> x_23 - x_34 <= -12
f885: z3_23_35 = 0 -> x_23 - x_35 <= -13
f886: z3_23_36 = 0 -> x_23 - x_36 <= -14
f887: z3_23_37 = 0 -> x_23 - x_37 <= -15
f888: z3_23_38 = 0 -> x_23 - x_38 <= -16
f889: z3_23_39 = 0 -> x_23 - x_39 <= -17
f890: z3_23_40 = 0 -> x_23 - x_40 <= -18
f891: z3_23_41 = 0 -> x_23 - x_41 <= -19
f892: z3_23_42 = 0 -> x_23 - x_42 <= -20
f893: z3_23_43 = 0 -> x_23 - x_43 <= -21
f894: z3_23_44 = 0 -> x_23 - x_44 <= -22
f895: z3_23_45 = 0 -> x_23 - x_45 <= -23
f896: z3_23_46 = 0 -> x_23 - x_46 <= -24
f897: z3_23_47 = 0 -> x_23 - x_47 <= -25
f898: z3_23_48 = 0 -> x_23 - x_48 <= -26
f899: z3_23_49 = 0 -> x_23 - x_49 <= -27
f900: z3_24_25 = 0 -> x_24 - x_25 <= -2
f901: z3_24_26 = 0 -> x_24 - x_26 <= -3
f902: z3_24_27 = 0 -> x_24 - x_27 <= -4
f903: z3_24_28 = 0 -> x_24 - x_28 <= -5
f904: z3_24_29 = 0 -> x_24 - x_29 <= -6
f905: z3_24_30 = 0 -> x_24 - x_30 <= -7
f906: z3_24_31 = 0 -> x_24 - x_31 <= -8
f907: z3_24_32 = 0 -> x_24 - x_32 <= -9
f908: z3_24_33 = 0 -> x_24 - x_33 <= -10
f909: z3_24_34 = 0 -> x_24 - x_34 <= -11
f910: z3_24_35 = 0 -> x_24 - x_35 <= -12
f911: z3_24_36 = 0 -> x_24 - x_36 <= -13
f912: z3_24_37 = 0 -> x_24 - x_37 <= -14
f913: z3_24_38 = 0 -> x_24 - x_38 <= -15
f914: z3_24_39 = 0 -> x_24 - x_39 <= -16
f915: z3_24_40 = 0 -> x_24 - x_40 <= -17
f916: z3_24_41 = 0 -> x_24 - x_41 <= -18
f917: z3_24_42 = 0 -> x_24 - x_42 <= -19
f918: z3_24_43 = 0 -> x_24 - x_43 <= -20
f919: z3_24_44 = 0 -> x_24 - x_44 <= -21
f920: z3_24_45 = 0 -> x_24 - x_45 <= -22
f921: z3_24_46 = 0 -> x_24 - x_46 <= -23
f922: z3_24_47 = 0 -> x_24 - x_47 <= -24
f923: z3_24_48 = 0 -> x_24 - x_48 <= -25
f924: z3_24_49 = 0 -> x_24 - x_49 <= -26
f925: z3_25_26 = 0 -> x_25 - x_26 <= -2
f926: z3_25_27 = 0 -> x_25 - x_27 <= -3
f927: z3_25_28 = 0 -> x_25 - x_28 <= -4
f928: z3_25_29 = 0 -> x_25 - x_29 <= -5
f929: z3_25_30 = 0 -> x_25 - x_30 <= -6
f930: z3_25_31 = 0 -> x_25 - x_31 <= -7
f931: z3_25_32 = 0 -> x_25 - x_32 <= -8
f932: z3_25_33 = 0 -> x_25 - x_33 <= -9
f933: z3_25_34 = 0 -> x_25 - x_34 <= -10
f934: z3_25_35 = 0 -> x_25 - x_35 <= -11
f935: z3_25_36 = 0 -> x_25 - x_36 <= -12
f936: z3_25_37 = 0 -> x_25 - x_37 <= -13
f937: z3_25_38 = 0 -> x_25 - x_38 <= -14
f938: z3_25_39 = 0 -> x_25 - x_39 <= -15
f939: z3_25_40 = 0 -> x_25 - x_40 <= -16
f940: z3_25_41 = 0 -> x_25 - x_41 <= -17
f941: z3_25_42 = 0 -> x_25 - x_42 <= -18
f942: z3_25_43 = 0 -> x_25 - x_43 <= -19
f943: z3_25_44 = 0 -> x_25 - x_44 <= -20
f944: z3_25_45 = 0 -> x_25 - x_45 <= -21
f945: z3_25_46 = 0 -> x_25 - x_46 <= -22
f946: z3_25_47 = 0 -> x_25 - x_47 <= -23
f947: z3_25_48 = 0 -> x_25 - x_48 <= -24
f948: z3_25_49 = 0 -> x_25 - x_49 <= -25
f949: z3_26_27 = 0 -> x_26 - x_27 <= -2
f950: z3_26_28 = 0 -> x_26 - x_28 <= -3
f951: z3_26_29 = 0 -> x_26 - x_29 <= -4
f952: z3_26_30 = 0 -> x_26 - x_30 <= -5
f953: z3_26_31 = 0 -> x_26 - x_31 <= -6
f954: z3_26_32 = 0 -> x_26 - x_32 <= -7
f955: z3_26_33 = 0 -> x_26 - x_33 <= -8
f956: z3_26_34 = 0 -> x_26 - x_34 <= -9
f957: z3_26_35 = 0 -> x_26 - x_35 <= -10
f958: z3_26_36 = 0 -> x_26 - x_36 <= -11
f959: z3_26_37 = 0 -> x_26 - x_37 <= -12
f960: z3_26_38 = 0 -> x_26 - x_38 <= -13
f961: z3_26_39 = 0 -> x_26 - x_39 <= -14
f962: z3_26_40 = 0 -> x_26 - x_40 <= -15
f963: z3_26_41 = 0 -> x_26 - x_41 <= -16
f964: z3_26_42 = 0 -> x_26 - x_42 <= -17
f965: z3_26_43 = 0 -> x_26 - x_43 <= -18
f966: z3_26_44 = 0 -> x_26 - x_44 <= -19
f967: z3_26_45 = 0 -> x_26 - x_45 <= -20
f968: z3_26_46 = 0 -> x_26 - x_46 <= -21
f969: z3_26_47 = 0 -> x_26 - x_47 <= -22
f970: z3_26_48 = 0 -> x_26 - x_48 <= -23
f971: z3_26_49 = 0 -> x_26 - x_49 <= -24
f972: z3_27_28 = 0 -> x_27 - x_28 <= -2
f973: z3_27_29 = 0 -> x_27 - x_29 <= -3
f974: z3_27_30 = 0 -> x_27 - x_30 <= -4
f975: z3_27_31 = 0 -> x_27 - x_31 <= -5
f976: z3_27_32 = 0 -> x_27 - x_32 <= -6
f977: z3_27_33 = 0 -> x_27 - x_33 <= -7
f978: z3_27_34 = 0 -> x_27 - x_34 <= -8
f979: z3_27_35 = 0 -> x_27 - x_35 <= -9
f980: z3_27_36 = 0 -> x_27 - x_36 <= -10
f981: z3_27_37 = 0 -> x_27 - x_37 <= -11
f982: z3_27_38 = 0 -> x_27 - x_38 <= -12
f983: z3_27_39 = 0 -> x_27 - x_39 <= -13
f984: z3_27_40 = 0 -> x_27 - x_40 <= -14
f985: z3_27_41 = 0 -> x_27 - x_41 <= -15
f986: z3_27_42 = 0 -> x_27 - x_42 <= -16
f987: z3_27_43 = 0 -> x_27 - x_43 <= -17
f988: z3_27_44 = 0 -> x_27 - x_44 <= -18
f989: z3_27_45 = 0 -> x_27 - x_45 <= -19
f990: z3_27_46 = 0 -> x_27 - x_46 <= -20
f991: z3_27_47 = 0 -> x_27 - x_47 <= -21
f992: z3_27_48 = 0 -> x_27 - x_48 <= -22
f993: z3_27_49 = 0 -> x_27 - x_49 <= -23
f994: z3_28_29 = 0 -> x_28 - x_29 <= -2
f995: z3_28_30 = 0 -> x_28 - x_30 <= -3
f996: z3_28_31 = 0 -> x_28 - x_31 <= -4
f997: z3_28_32 = 0 -> x_28 - x_32 <= -5
f998: z3_28_33 = 0 -> x_28 - x_33 <= -6
f999: z3_28_34 = 0 -> x_28 - x_34 <= -7
f1000: z3_28_35 = 0 -> x_28 - x_35 <= -8
f1001: z3_28_36 = 0 -> x_28 - x_36 <= -9
f1002: z3_28_37 = 0 -> x_28 - x_37 <= -10
f1003: z3_28_38 = 0 -> x_28 - x_38 <= -11
f1004: z3_28_39 = 0 -> x_28 - x_39 <= -12
f1005: z3_28_40 = 0 -> x_28 - x_40 <= -13
f1006: z3_28_41 = 0 -> x_28 - x_41 <= -14
f1007: z3_28_42 = 0 -> x_28 - x_42 <= -15
f1008: z3_28_43 = 0 -> x_28 - x_43 <= -16
f1009: z3_28_44 = 0 -> x_28 - x_44 <= -17
f1010: z3_28_45 = 0 -> x_28 - x_45 <= -18
f1011: z3_28_46 = 0 -> x_28 - x_46 <= -19
f1012: z3_28_47 = 0 -> x_28 - x_47 <= -20
f1013: z3_28_48 = 0 -> x_28 - x_48 <= -21
f1014: z3_28_49 = 0 -> x_28 - x_49 <= -22
f1015: z3_29_30 = 0 -> x_29 - x_30 <= -2
f1016: z3_29_31 = 0 -> x_29 - x_31 <= -3
f1017: z3_29_32 = 0 -> x_29 - x_32 <= -4
f1018: z3_29_33 = 0 -> x_29 - x_33 <= -5
f1019: z3_29_34 = 0 -> x_29 - x_34 <= -6
f1020: z3_29_35 = 0 -> x_29 - x_35 <= -7
f1021: z3_29_36 = 0 -> x_29 - x_36 <= -8
f1022: z3_29_37 = 0 -> x_29 - x_37 <= -9
f1023: z3_29_38 = 0 -> x_29 - x_38 <= -10
f1024: z3_29_39 = 0 -> x_29 - x_39 <= -11
f1025: z3_29_40 = 0 -> x_29 - x_40 <= -12
f1026: z3_29_41 = 0 -> x_29 - x_41 <= -13
f1027: z3_29_42 = 0 -> x_29 - x_42 <= -14
f1028: z3_29_43 = 0 -> x_29 - x_43 <= -15
f1029: z3_29_44 = 0 -> x_29 - x_44 <= -16
f1030: z3_29_45 = 0 -> x_29 - x_45 <= -17
f1031: z3_29_46 = 0 -> x_29 - x_46 <= -18
f1032: z3_29_47 = 0 -> x_29 - x_47 <= -19
f1033: z3_29_48 = 0 -> x_29 - x_48 <= -20
f1034: z3_29_49 = 0 -> x_29 - x_49 <= -21
f1035: z3_30_31 = 0 -> x_30 - x_31 <= -2
f1036: z3_30_32 = 0 -> x_30 - x_32 <= -3
f1037: z3_30_33 = 0 -> x_30 - x_33 <= -4
f1038: z3_30_34 = 0 -> x_30 - x_34 <= -5
f1039: z3_30_35 = 0 -> x_30 - x_35 <= -6
f1040: z3_30_36 = 0 -> x_30 - x_36 <= -7
f1041: z3_30_37 = 0 -> x_30 - x_37 <= -8
f1042: z3_30_38 = 0 -> x_30 - x_38 <= -9
f1043: z3_30_39 = 0 -> x_30 - x_39 <= -10
f1044: z3_30_40 = 0 -> x_30 - x_40 <= -11
f1045: z3_30_41 = 0 -> x_30 - x_41 <= -12
f1046: z3_30_42 = 0 -> x_30 - x_42 <= -13
f1047: z3_30_43 = 0 -> x_30 - x_43 <= -14
f1048: z3_30_44 = 0 -> x_30 - x_44 <= -15
f1049: z3_30_45 = 0 -> x_30 - x_45 <= -16
f1050: z3_30_46 = 0 -> x_30 - x_46 <= -17
f1051: z3_30_47 = 0 -> x_30 - x_47 <= -18
f1052: z3_30_48 = 0 -> x_30 - x_48 <= -19
f1053: z3_30_49 = 0 -> x_30 - x_49 <= -20
f1054: z3_31_32 = 0 -> x_31 - x_32 <= -2
f1055: z3_31_33 = 0 -> x_31 - x_33 <= -3
f1056: z3_31_34 = 0 -> x_31 - x_34 <= -4
f1057: z3_31_35 = 0 -> x_31 - x_35 <= -5
f1058: z3_31_36 = 0 -> x_31 - x_36 <= -6
f1059: z3_31_37 = 0 -> x_31 - x_37 <= -7
f1060: z3_31_38 = 0 -> x_31 - x_38 <= -8
f1061: z3_31_39 = 0 -> x_31 - x_39 <= -9
f1062: z3_31_40 = 0 -> x_31 - x_40 <= -10
f1063: z3_31_41 = 0 -> x_31 - x_41 <= -11
f1064: z3_31_42 = 0 -> x_31 - x_42 <= -12
f1065: z3_31_43 = 0 -> x_31 - x_43 <= -13
f1066: z3_31_44 = 0 -> x_31 - x_44 <= -14
f1067: z3_31_45 = 0 -> x_31 - x_45 <= -15
f1068: z3_31_46 = 0 -> x_31 - x_46 <= -16
f1069: z3_31_47 = 0 -> x_31 - x_47 <= -17
f1070: z3_31_48 = 0 -> x_31 - x_48 <= -18
f1071: z3_31_49 = 0 -> x_31 - x_49 <= -19
f1072: z3_32_33 = 0 -> x_32 - x_33 <= -2
f1073: z3_32_34 = 0 -> x_32 - x_34 <= -3
f1074: z3_32_35 = 0 -> x_32 - x_35 <= -4
f1075: z3_32_36 = 0 -> x_32 - x_36 <= -5
f1076: z3_32_37 = 0 -> x_32 - x_37 <= -6
f1077: z3_32_38 = 0 -> x_32 - x_38 <= -7
f1078: z3_32_39 = 0 -> x_32 - x_39 <= -8
f1079: z3_32_40 = 0 -> x_32 - x_40 <= -9
f1080: z3_32_41 = 0 -> x_32 - x_41 <= -10
f1081: z3_32_42 = 0 -> x_32 - x_42 <= -11
f1082: z3_32_43 = 0 -> x_32 - x_43 <= -12
f1083: z3_32_44 = 0 -> x_32 - x_44 <= -13
f1084: z3_32_45 = 0 -> x_32 - x_45 <= -14
f1085: z3_32_46 = 0 -> x_32 - x_46 <= -15
f1086: z3_32_47 = 0 -> x_32 - x_47 <= -16
f1087: z3_32_48 = 0 -> x_32 - x_48 <= -17
f1088: z3_32_49 = 0 -> x_32 - x_49 <= -18
f1089: z3_33_34 = 0 -> x_33 - x_34 <= -2
f1090: z3_33_35 = 0 -> x_33 - x_35 <= -3
f1091: z3_33_36 = 0 -> x_33 - x_36 <= -4
f1092: z3_33_37 = 0 -> x_33 - x_37 <= -5
f1093: z3_33_38 = 0 -> x_33 - x_38 <= -6
f1094: z3_33_39 = 0 -> x_33 - x_39 <= -7
f1095: z3_33_40 = 0 -> x_33 - x_40 <= -8
f1096: z3_33_41 = 0 -> x_33 - x_41 <= -9
f1097: z3_33_42 = 0 -> x_33 - x_42 <= -10
f1098: z3_33_43 = 0 -> x_33 - x_43 <= -11
f1099: z3_33_44 = 0 -> x_33 - x_44 <= -12
f1100: z3_33_45 = 0 -> x_33 - x_45 <= -13
f1101: z3_33_46 = 0 -> x_33 - x_46 <= -14
f1102: z3_33_47 = 0 -> x_33 - x_47 <= -15
f1103: z3_33_48 = 0 -> x_33 - x_48 <= -16
f1104: z3_33_49 = 0 -> x_33 - x_49 <= -17
f1105: z3_34_35 = 0 -> x_34 - x_35 <= -2
f1106: z3_34_36 = 0 -> x_34 - x_36 <= -3
f1107: z3_34_37 = 0 -> x_34 - x_37 <= -4
f1108: z3_34_38 = 0 -> x_34 - x_38 <= -5
f1109: z3_34_39 = 0 -> x_34 - x_39 <= -6
f1110: z3_34_40 = 0 -> x_34 - x_40 <= -7
f1111: z3_34_41 = 0 -> x_34 - x_41 <= -8
f1112: z3_34_42 = 0 -> x_34 - x_42 <= -9
f1113: z3_34_43 = 0 -> x_34 - x_43 <= -10
f1114: z3_34_44 = 0 -> x_34 - x_44 <= -11
f1115: z3_34_45 = 0 -> x_34 - x_45 <= -12
f1116: z3_34_46 = 0 -> x_34 - x_46 <= -13
f1117: z3_34_47 = 0 -> x_34 - x_47 <= -14
f1118: z3_34_48 = 0 -> x_34 - x_48 <= -15
f1119: z3_34_49 = 0 -> x_34 - x_49 <= -16
f1120: z3_35_36 = 0 -> x_35 - x_36 <= -2
f1121: z3_35_37 = 0 -> x_35 - x_37 <= -3
f1122: z3_35_38 = 0 -> x_35 - x_38 <= -4
f1123: z3_35_39 = 0 -> x_35 - x_39 <= -5
f1124: z3_35_40 = 0 -> x_35 - x_40 <= -6
f1125: z3_35_41 = 0 -> x_35 - x_41 <= -7
f1126: z3_35_42 = 0 -> x_35 - x_42 <= -8
f1127: z3_35_43 = 0 -> x_35 - x_43 <= -9
f1128: z3_35_44 = 0 -> x_35 - x_44 <= -10
f1129: z3_35_45 = 0 -> x_35 - x_45 <= -11
f1130: z3_35_46 = 0 -> x_35 - x_46 <= -12
f1131: z3_35_47 = 0 -> x_35 - x_47 <= -13
f1132: z3_35_48 = 0 -> x_35 - x_48 <= -14
f1133: z3_35_49 = 0 -> x_35 - x_49 <= -15
f1134: z3_36_37 = 0 -> x_36 - x_37 <= -2
f1135: z3_36_38 = 0 -> x_36 - x_38 <= -3
f1136: z3_36_39 = 0 -> x_36 - x_39 <= -4
f1137: z3_36_40 = 0 -> x_36 - x_40 <= -5
f1138: z3_36_41 = 0 -> x_36 - x_41 <= -6
f1139: z3_36_42 = 0 -> x_36 - x_42 <= -7
f1140: z3_36_43 = 0 -> x_36 - x_43 <= -8
f1141: z3_36_44 = 0 -> x_36 - x_44 <= -9
f1142: z3_36_45 = 0 -> x_36 - x_45 <= -10
f1143: z3_36_46 = 0 -> x_36 - x_46 <= -11
f1144: z3_36_47 = 0 -> x_36 - x_47 <= -12
f1145: z3_36_48 = 0 -> x_36 - x_48 <= -13
f1146: z3_36_49 = 0 -> x_36 - x_49 <= -14
f1147: z3_37_38 = 0 -> x_37 - x_38 <= -2
f1148: z3_37_39 = 0 -> x_37 - x_39 <= -3
f1149: z3_37_40 = 0 -> x_37 - x_40 <= -4
f1150: z3_37_41 = 0 -> x_37 - x_41 <= -5
f1151: z3_37_42 = 0 -> x_37 - x_42 <= -6
f1152: z3_37_43 = 0 -> x_37 - x_43 <= -7
f1153: z3_37_44 = 0 -> x_37 - x_44 <= -8
f1154: z3_37_45 = 0 -> x_37 - x_45 <= -9
f1155: z3_37_46 = 0 -> x_37 - x_46 <= -10
f1156: z3_37_47 = 0 -> x_37 - x_47 <= -11
f1157: z3_37_48 = 0 -> x_37 - x_48 <= -12
f1158: z3_37_49 = 0 -> x_37 - x_49 <= -13
f1159: z3_38_39 = 0 -> x_38 - x_39 <= -2
f1160: z3_38_40 = 0 -> x_38 - x_40 <= -3
f1161: z3_38_41 = 0 -> x_38 - x_41 <= -4
f1162: z3_38_42 = 0 -> x_38 - x_42 <= -5
f1163: z3_38_43 = 0 -> x_38 - x_43 <= -6
f1164: z3_38_44 = 0 -> x_38 - x_44 <= -7
f1165: z3_38_45 = 0 -> x_38 - x_45 <= -8
f1166: z3_38_46 = 0 -> x_38 - x_46 <= -9
f1167: z3_38_47 = 0 -> x_38 - x_47 <= -10
f1168: z3_38_48 = 0 -> x_38 - x_48 <= -11
f1169: z3_38_49 = 0 -> x_38 - x_49 <= -12
f1170: z3_39_40 = 0 -> x_39 - x_40 <= -2
f1171: z3_39_41 = 0 -> x_39 - x_41 <= -3
f1172: z3_39_42 = 0 -> x_39 - x_42 <= -4
f1173: z3_39_43 = 0 -> x_39 - x_43 <= -5
f1174: z3_39_44 = 0 -> x_39 - x_44 <= -6
f1175: z3_39_45 = 0 -> x_39 - x_45 <= -7
f1176: z3_39_46 = 0 -> x_39 - x_46 <= -8
f1177: z3_39_47 = 0 -> x_39 - x_47 <= -9
f1178: z3_39_48 = 0 -> x_39 - x_48 <= -10
f1179: z3_39_49 = 0 -> x_39 - x_49 <= -11
f1180: z3_40_41 = 0 -> x_40 - x_41 <= -2
f1181: z3_40_42 = 0 -> x_40 - x_42 <= -3
f1182: z3_40_43 = 0 -> x_40 - x_43 <= -4
f1183: z3_40_44 = 0 -> x_40 - x_44 <= -5
f1184: z3_40_45 = 0 -> x_40 - x_45 <= -6
f1185: z3_40_46 = 0 -> x_40 - x_46 <= -7
f1186: z3_40_47 = 0 -> x_40 - x_47 <= -8
f1187: z3_40_48 = 0 -> x_40 - x_48 <= -9
f1188: z3_40_49 = 0 -> x_40 - x_49 <= -10
f1189: z3_41_42 = 0 -> x_41 - x_42 <= -2
f1190: z3_41_43 = 0 -> x_41 - x_43 <= -3
f1191: z3_41_44 = 0 -> x_41 - x_44 <= -4
f1192: z3_41_45 = 0 -> x_41 - x_45 <= -5
f1193: z3_41_46 = 0 -> x_41 - x_46 <= -6
f1194: z3_41_47 = 0 -> x_41 - x_47 <= -7
f1195: z3_41_48 = 0 -> x_41 - x_48 <= -8
f1196: z3_41_49 = 0 -> x_41 - x_49 <= -9
f1197: z3_42_43 = 0 -> x_42 - x_43 <= -2
f1198: z3_42_44 = 0 -> x_42 - x_44 <= -3
f1199: z3_42_45 = 0 -> x_42 - x_45 <= -4
f1200: z3_42_46 = 0 -> x_42 - x_46 <= -5
f1201: z3_42_47 = 0 -> x_42 - x_47 <= -6
f1202: z3_42_48 = 0 -> x_42 - x_48 <= -7
f1203: z3_42_49 = 0 -> x_42 - x_49 <= -8
f1204: z3_43_44 = 0 -> x_43 - x_44 <= -2
f1205: z3_43_45 = 0 -> x_43 - x_45 <= -3
f1206: z3_43_46 = 0 -> x_43 - x_46 <= -4
f1207: z3_43_47 = 0 -> x_43 - x_47 <= -5
f1208: z3_43_48 = 0 -> x_43 - x_48 <= -6
f1209: z3_43_49 = 0 -> x_43 - x_49 <= -7
f1210: z3_44_45 = 0 -> x_44 - x_45 <= -2
f1211: z3_44_46 = 0 -> x_44 - x_46 <= -3
f1212: z3_44_47 = 0 -> x_44 - x_47 <= -4
f1213: z3_44_48 = 0 -> x_44 - x_48 <= -5
f1214: z3_44_49 = 0 -> x_44 - x_49 <= -6
f1215: z3_45_46 = 0 -> x_45 - x_46 <= -2
f1216: z3_45_47 = 0 -> x_45 - x_47 <= -3
f1217: z3_45_48 = 0 -> x_45 - x_48 <= -4
f1218: z3_45_49 = 0 -> x_45 - x_49 <= -5
f1219: z3_46_47 = 0 -> x_46 - x_47 <= -2
f1220: z3_46_48 = 0 -> x_46 - x_48 <= -3
f1221: z3_46_49 = 0 -> x_46 - x_49 <= -4
f1222: z3_47_48 = 0 -> x_47 - x_48 <= -2
f1223: z3_47_49 = 0 -> x_47 - x_49 <= -3
f1224: z3_48_49 = 0 -> x_48 - x_49 <= -2



Bounds


x_0 <= 49
x_1 <= 49
x_2 <= 49
x_3 <= 49
x_4 <= 49
x_5 <= 49
x_6 <= 49
x_7 <= 49
x_8 <= 49
x_9 <= 49
x_10 <= 49
x_11 <= 49
x_12 <= 49
x_13 <= 49
x_14 <= 49
x_15 <= 49
x_16 <= 49
x_17 <= 49
x_18 <= 49
x_19 <= 49
x_20 <= 49
x_21 <= 49
x_22 <= 49
x_23 <= 49
x_24 <= 49
x_25 <= 49
x_26 <= 49
x_27 <= 49
x_28 <= 49
x_29 <= 49
x_30 <= 49
x_31 <= 49
x_32 <= 49
x_33 <= 49
x_34 <= 49
x_35 <= 49
x_36 <= 49
x_37 <= 49
x_38 <= 49
x_39 <= 49
x_40 <= 49
x_41 <= 49
x_42 <= 49
x_43 <= 49
x_44 <= 49
x_45 <= 49
x_46 <= 49
x_47 <= 49
x_48 <= 49
x_49 <= 49



Binary

z1_0_1 z1_0_2 z1_0_3 z1_0_4 z1_0_5 z1_0_6 z1_0_7 z1_0_8 z1_0_9 z1_0_10 z1_0_11 z1_0_12 z1_0_13 z1_0_14 z1_0_15 z1_0_16 z1_0_17 z1_0_18 z1_0_19 z1_0_20 z1_0_21 z1_0_22 z1_0_23 z1_0_24 z1_0_25 z1_0_26 z1_0_27 z1_0_28 z1_0_29 z1_0_30 z1_0_31 z1_0_32 z1_0_33 z1_0_34 z1_0_35 z1_0_36 z1_0_37 z1_0_38 z1_0_39 z1_0_40 z1_0_41 z1_0_42 z1_0_43 z1_0_44 z1_0_45 z1_0_46 z1_0_47 z1_0_48 z1_0_49 z1_1_2 z1_1_3 z1_1_4 z1_1_5 z1_1_6 z1_1_7 z1_1_8 z1_1_9 z1_1_10 z1_1_11 z1_1_12 z1_1_13 z1_1_14 z1_1_15 z1_1_16 z1_1_17 z1_1_18 z1_1_19 z1_1_20 z1_1_21 z1_1_22 z1_1_23 z1_1_24 z1_1_25 z1_1_26 z1_1_27 z1_1_28 z1_1_29 z1_1_30 z1_1_31 z1_1_32 z1_1_33 z1_1_34 z1_1_35 z1_1_36 z1_1_37 z1_1_38 z1_1_39 z1_1_40 z1_1_41 z1_1_42 z1_1_43 z1_1_44 z1_1_45 z1_1_46 z1_1_47 z1_1_48 z1_1_49 z1_2_3 z1_2_4 z1_2_5 z1_2_6 z1_2_7 z1_2_8 z1_2_9 z1_2_10 z1_2_11 z1_2_12 z1_2_13 z1_2_14 z1_2_15 z1_2_16 z1_2_17 z1_2_18 z1_2_19 z1_2_20 z1_2_21 z1_2_22 z1_2_23 z1_2_24 z1_2_25 z1_2_26 z1_2_27 z1_2_28 z1_2_29 z1_2_30 z1_2_31 z1_2_32 z1_2_33 z1_2_34 z1_2_35 z1_2_36 z1_2_37 z1_2_38 z1_2_39 z1_2_40 z1_2_41 z1_2_42 z1_2_43 z1_2_44 z1_2_45 z1_2_46 z1_2_47 z1_2_48 z1_2_49 z1_3_4 z1_3_5 z1_3_6 z1_3_7 z1_3_8 z1_3_9 z1_3_10 z1_3_11 z1_3_12 z1_3_13 z1_3_14 z1_3_15 z1_3_16 z1_3_17 z1_3_18 z1_3_19 z1_3_20 z1_3_21 z1_3_22 z1_3_23 z1_3_24 z1_3_25 z1_3_26 z1_3_27 z1_3_28 z1_3_29 z1_3_30 z1_3_31 z1_3_32 z1_3_33 z1_3_34 z1_3_35 z1_3_36 z1_3_37 z1_3_38 z1_3_39 z1_3_40 z1_3_41 z1_3_42 z1_3_43 z1_3_44 z1_3_45 z1_3_46 z1_3_47 z1_3_48 z1_3_49 z1_4_5 z1_4_6 z1_4_7 z1_4_8 z1_4_9 z1_4_10 z1_4_11 z1_4_12 z1_4_13 z1_4_14 z1_4_15 z1_4_16 z1_4_17 z1_4_18 z1_4_19 z1_4_20 z1_4_21 z1_4_22 z1_4_23 z1_4_24 z1_4_25 z1_4_26 z1_4_27 z1_4_28 z1_4_29 z1_4_30 z1_4_31 z1_4_32 z1_4_33 z1_4_34 z1_4_35 z1_4_36 z1_4_37 z1_4_38 z1_4_39 z1_4_40 z1_4_41 z1_4_42 z1_4_43 z1_4_44 z1_4_45 z1_4_46 z1_4_47 z1_4_48 z1_4_49 z1_5_6 z1_5_7 z1_5_8 z1_5_9 z1_5_10 z1_5_11 z1_5_12 z1_5_13 z1_5_14 z1_5_15 z1_5_16 z1_5_17 z1_5_18 z1_5_19 z1_5_20 z1_5_21 z1_5_22 z1_5_23 z1_5_24 z1_5_25 z1_5_26 z1_5_27 z1_5_28 z1_5_29 z1_5_30 z1_5_31 z1_5_32 z1_5_33 z1_5_34 z1_5_35 z1_5_36 z1_5_37 z1_5_38 z1_5_39 z1_5_40 z1_5_41 z1_5_42 z1_5_43 z1_5_44 z1_5_45 z1_5_46 z1_5_47 z1_5_48 z1_5_49 z1_6_7 z1_6_8 z1_6_9 z1_6_10 z1_6_11 z1_6_12 z1_6_13 z1_6_14 z1_6_15 z1_6_16 z1_6_17 z1_6_18 z1_6_19 z1_6_20 z1_6_21 z1_6_22 z1_6_23 z1_6_24 z1_6_25 z1_6_26 z1_6_27 z1_6_28 z1_6_29 z1_6_30 z1_6_31 z1_6_32 z1_6_33 z1_6_34 z1_6_35 z1_6_36 z1_6_37 z1_6_38 z1_6_39 z1_6_40 z1_6_41 z1_6_42 z1_6_43 z1_6_44 z1_6_45 z1_6_46 z1_6_47 z1_6_48 z1_6_49 z1_7_8 z1_7_9 z1_7_10 z1_7_11 z1_7_12 z1_7_13 z1_7_14 z1_7_15 z1_7_16 z1_7_17 z1_7_18 z1_7_19 z1_7_20 z1_7_21 z1_7_22 z1_7_23 z1_7_24 z1_7_25 z1_7_26 z1_7_27 z1_7_28 z1_7_29 z1_7_30 z1_7_31 z1_7_32 z1_7_33 z1_7_34 z1_7_35 z1_7_36 z1_7_37 z1_7_38 z1_7_39 z1_7_40 z1_7_41 z1_7_42 z1_7_43 z1_7_44 z1_7_45 z1_7_46 z1_7_47 z1_7_48 z1_7_49 z1_8_9 z1_8_10 z1_8_11 z1_8_12 z1_8_13 z1_8_14 z1_8_15 z1_8_16 z1_8_17 z1_8_18 z1_8_19 z1_8_20 z1_8_21 z1_8_22 z1_8_23 z1_8_24 z1_8_25 z1_8_26 z1_8_27 z1_8_28 z1_8_29 z1_8_30 z1_8_31 z1_8_32 z1_8_33 z1_8_34 z1_8_35 z1_8_36 z1_8_37 z1_8_38 z1_8_39 z1_8_40 z1_8_41 z1_8_42 z1_8_43 z1_8_44 z1_8_45 z1_8_46 z1_8_47 z1_8_48 z1_8_49 z1_9_10 z1_9_11 z1_9_12 z1_9_13 z1_9_14 z1_9_15 z1_9_16 z1_9_17 z1_9_18 z1_9_19 z1_9_20 z1_9_21 z1_9_22 z1_9_23 z1_9_24 z1_9_25 z1_9_26 z1_9_27 z1_9_28 z1_9_29 z1_9_30 z1_9_31 z1_9_32 z1_9_33 z1_9_34 z1_9_35 z1_9_36 z1_9_37 z1_9_38 z1_9_39 z1_9_40 z1_9_41 z1_9_42 z1_9_43 z1_9_44 z1_9_45 z1_9_46 z1_9_47 z1_9_48 z1_9_49 z1_10_11 z1_10_12 z1_10_13 z1_10_14 z1_10_15 z1_10_16 z1_10_17 z1_10_18 z1_10_19 z1_10_20 z1_10_21 z1_10_22 z1_10_23 z1_10_24 z1_10_25 z1_10_26 z1_10_27 z1_10_28 z1_10_29 z1_10_30 z1_10_31 z1_10_32 z1_10_33 z1_10_34 z1_10_35 z1_10_36 z1_10_37 z1_10_38 z1_10_39 z1_10_40 z1_10_41 z1_10_42 z1_10_43 z1_10_44 z1_10_45 z1_10_46 z1_10_47 z1_10_48 z1_10_49 z1_11_12 z1_11_13 z1_11_14 z1_11_15 z1_11_16 z1_11_17 z1_11_18 z1_11_19 z1_11_20 z1_11_21 z1_11_22 z1_11_23 z1_11_24 z1_11_25 z1_11_26 z1_11_27 z1_11_28 z1_11_29 z1_11_30 z1_11_31 z1_11_32 z1_11_33 z1_11_34 z1_11_35 z1_11_36 z1_11_37 z1_11_38 z1_11_39 z1_11_40 z1_11_41 z1_11_42 z1_11_43 z1_11_44 z1_11_45 z1_11_46 z1_11_47 z1_11_48 z1_11_49 z1_12_13 z1_12_14 z1_12_15 z1_12_16 z1_12_17 z1_12_18 z1_12_19 z1_12_20 z1_12_21 z1_12_22 z1_12_23 z1_12_24 z1_12_25 z1_12_26 z1_12_27 z1_12_28 z1_12_29 z1_12_30 z1_12_31 z1_12_32 z1_12_33 z1_12_34 z1_12_35 z1_12_36 z1_12_37 z1_12_38 z1_12_39 z1_12_40 z1_12_41 z1_12_42 z1_12_43 z1_12_44 z1_12_45 z1_12_46 z1_12_47 z1_12_48 z1_12_49 z1_13_14 z1_13_15 z1_13_16 z1_13_17 z1_13_18 z1_13_19 z1_13_20 z1_13_21 z1_13_22 z1_13_23 z1_13_24 z1_13_25 z1_13_26 z1_13_27 z1_13_28 z1_13_29 z1_13_30 z1_13_31 z1_13_32 z1_13_33 z1_13_34 z1_13_35 z1_13_36 z1_13_37 z1_13_38 z1_13_39 z1_13_40 z1_13_41 z1_13_42 z1_13_43 z1_13_44 z1_13_45 z1_13_46 z1_13_47 z1_13_48 z1_13_49 z1_14_15 z1_14_16 z1_14_17 z1_14_18 z1_14_19 z1_14_20 z1_14_21 z1_14_22 z1_14_23 z1_14_24 z1_14_25 z1_14_26 z1_14_27 z1_14_28 z1_14_29 z1_14_30 z1_14_31 z1_14_32 z1_14_33 z1_14_34 z1_14_35 z1_14_36 z1_14_37 z1_14_38 z1_14_39 z1_14_40 z1_14_41 z1_14_42 z1_14_43 z1_14_44 z1_14_45 z1_14_46 z1_14_47 z1_14_48 z1_14_49 z1_15_16 z1_15_17 z1_15_18 z1_15_19 z1_15_20 z1_15_21 z1_15_22 z1_15_23 z1_15_24 z1_15_25 z1_15_26 z1_15_27 z1_15_28 z1_15_29 z1_15_30 z1_15_31 z1_15_32 z1_15_33 z1_15_34 z1_15_35 z1_15_36 z1_15_37 z1_15_38 z1_15_39 z1_15_40 z1_15_41 z1_15_42 z1_15_43 z1_15_44 z1_15_45 z1_15_46 z1_15_47 z1_15_48 z1_15_49 z1_16_17 z1_16_18 z1_16_19 z1_16_20 z1_16_21 z1_16_22 z1_16_23 z1_16_24 z1_16_25 z1_16_26 z1_16_27 z1_16_28 z1_16_29 z1_16_30 z1_16_31 z1_16_32 z1_16_33 z1_16_34 z1_16_35 z1_16_36 z1_16_37 z1_16_38 z1_16_39 z1_16_40 z1_16_41 z1_16_42 z1_16_43 z1_16_44 z1_16_45 z1_16_46 z1_16_47 z1_16_48 z1_16_49 z1_17_18 z1_17_19 z1_17_20 z1_17_21 z1_17_22 z1_17_23 z1_17_24 z1_17_25 z1_17_26 z1_17_27 z1_17_28 z1_17_29 z1_17_30 z1_17_31 z1_17_32 z1_17_33 z1_17_34 z1_17_35 z1_17_36 z1_17_37 z1_17_38 z1_17_39 z1_17_40 z1_17_41 z1_17_42 z1_17_43 z1_17_44 z1_17_45 z1_17_46 z1_17_47 z1_17_48 z1_17_49 z1_18_19 z1_18_20 z1_18_21 z1_18_22 z1_18_23 z1_18_24 z1_18_25 z1_18_26 z1_18_27 z1_18_28 z1_18_29 z1_18_30 z1_18_31 z1_18_32 z1_18_33 z1_18_34 z1_18_35 z1_18_36 z1_18_37 z1_18_38 z1_18_39 z1_18_40 z1_18_41 z1_18_42 z1_18_43 z1_18_44 z1_18_45 z1_18_46 z1_18_47 z1_18_48 z1_18_49 z1_19_20 z1_19_21 z1_19_22 z1_19_23 z1_19_24 z1_19_25 z1_19_26 z1_19_27 z1_19_28 z1_19_29 z1_19_30 z1_19_31 z1_19_32 z1_19_33 z1_19_34 z1_19_35 z1_19_36 z1_19_37 z1_19_38 z1_19_39 z1_19_40 z1_19_41 z1_19_42 z1_19_43 z1_19_44 z1_19_45 z1_19_46 z1_19_47 z1_19_48 z1_19_49 z1_20_21 z1_20_22 z1_20_23 z1_20_24 z1_20_25 z1_20_26 z1_20_27 z1_20_28 z1_20_29 z1_20_30 z1_20_31 z1_20_32 z1_20_33 z1_20_34 z1_20_35 z1_20_36 z1_20_37 z1_20_38 z1_20_39 z1_20_40 z1_20_41 z1_20_42 z1_20_43 z1_20_44 z1_20_45 z1_20_46 z1_20_47 z1_20_48 z1_20_49 z1_21_22 z1_21_23 z1_21_24 z1_21_25 z1_21_26 z1_21_27 z1_21_28 z1_21_29 z1_21_30 z1_21_31 z1_21_32 z1_21_33 z1_21_34 z1_21_35 z1_21_36 z1_21_37 z1_21_38 z1_21_39 z1_21_40 z1_21_41 z1_21_42 z1_21_43 z1_21_44 z1_21_45 z1_21_46 z1_21_47 z1_21_48 z1_21_49 z1_22_23 z1_22_24 z1_22_25 z1_22_26 z1_22_27 z1_22_28 z1_22_29 z1_22_30 z1_22_31 z1_22_32 z1_22_33 z1_22_34 z1_22_35 z1_22_36 z1_22_37 z1_22_38 z1_22_39 z1_22_40 z1_22_41 z1_22_42 z1_22_43 z1_22_44 z1_22_45 z1_22_46 z1_22_47 z1_22_48 z1_22_49 z1_23_24 z1_23_25 z1_23_26 z1_23_27 z1_23_28 z1_23_29 z1_23_30 z1_23_31 z1_23_32 z1_23_33 z1_23_34 z1_23_35 z1_23_36 z1_23_37 z1_23_38 z1_23_39 z1_23_40 z1_23_41 z1_23_42 z1_23_43 z1_23_44 z1_23_45 z1_23_46 z1_23_47 z1_23_48 z1_23_49 z1_24_25 z1_24_26 z1_24_27 z1_24_28 z1_24_29 z1_24_30 z1_24_31 z1_24_32 z1_24_33 z1_24_34 z1_24_35 z1_24_36 z1_24_37 z1_24_38 z1_24_39 z1_24_40 z1_24_41 z1_24_42 z1_24_43 z1_24_44 z1_24_45 z1_24_46 z1_24_47 z1_24_48 z1_24_49 z1_25_26 z1_25_27 z1_25_28 z1_25_29 z1_25_30 z1_25_31 z1_25_32 z1_25_33 z1_25_34 z1_25_35 z1_25_36 z1_25_37 z1_25_38 z1_25_39 z1_25_40 z1_25_41 z1_25_42 z1_25_43 z1_25_44 z1_25_45 z1_25_46 z1_25_47 z1_25_48 z1_25_49 z1_26_27 z1_26_28 z1_26_29 z1_26_30 z1_26_31 z1_26_32 z1_26_33 z1_26_34 z1_26_35 z1_26_36 z1_26_37 z1_26_38 z1_26_39 z1_26_40 z1_26_41 z1_26_42 z1_26_43 z1_26_44 z1_26_45 z1_26_46 z1_26_47 z1_26_48 z1_26_49 z1_27_28 z1_27_29 z1_27_30 z1_27_31 z1_27_32 z1_27_33 z1_27_34 z1_27_35 z1_27_36 z1_27_37 z1_27_38 z1_27_39 z1_27_40 z1_27_41 z1_27_42 z1_27_43 z1_27_44 z1_27_45 z1_27_46 z1_27_47 z1_27_48 z1_27_49 z1_28_29 z1_28_30 z1_28_31 z1_28_32 z1_28_33 z1_28_34 z1_28_35 z1_28_36 z1_28_37 z1_28_38 z1_28_39 z1_28_40 z1_28_41 z1_28_42 z1_28_43 z1_28_44 z1_28_45 z1_28_46 z1_28_47 z1_28_48 z1_28_49 z1_29_30 z1_29_31 z1_29_32 z1_29_33 z1_29_34 z1_29_35 z1_29_36 z1_29_37 z1_29_38 z1_29_39 z1_29_40 z1_29_41 z1_29_42 z1_29_43 z1_29_44 z1_29_45 z1_29_46 z1_29_47 z1_29_48 z1_29_49 z1_30_31 z1_30_32 z1_30_33 z1_30_34 z1_30_35 z1_30_36 z1_30_37 z1_30_38 z1_30_39 z1_30_40 z1_30_41 z1_30_42 z1_30_43 z1_30_44 z1_30_45 z1_30_46 z1_30_47 z1_30_48 z1_30_49 z1_31_32 z1_31_33 z1_31_34 z1_31_35 z1_31_36 z1_31_37 z1_31_38 z1_31_39 z1_31_40 z1_31_41 z1_31_42 z1_31_43 z1_31_44 z1_31_45 z1_31_46 z1_31_47 z1_31_48 z1_31_49 z1_32_33 z1_32_34 z1_32_35 z1_32_36 z1_32_37 z1_32_38 z1_32_39 z1_32_40 z1_32_41 z1_32_42 z1_32_43 z1_32_44 z1_32_45 z1_32_46 z1_32_47 z1_32_48 z1_32_49 z1_33_34 z1_33_35 z1_33_36 z1_33_37 z1_33_38 z1_33_39 z1_33_40 z1_33_41 z1_33_42 z1_33_43 z1_33_44 z1_33_45 z1_33_46 z1_33_47 z1_33_48 z1_33_49 z1_34_35 z1_34_36 z1_34_37 z1_34_38 z1_34_39 z1_34_40 z1_34_41 z1_34_42 z1_34_43 z1_34_44 z1_34_45 z1_34_46 z1_34_47 z1_34_48 z1_34_49 z1_35_36 z1_35_37 z1_35_38 z1_35_39 z1_35_40 z1_35_41 z1_35_42 z1_35_43 z1_35_44 z1_35_45 z1_35_46 z1_35_47 z1_35_48 z1_35_49 z1_36_37 z1_36_38 z1_36_39 z1_36_40 z1_36_41 z1_36_42 z1_36_43 z1_36_44 z1_36_45 z1_36_46 z1_36_47 z1_36_48 z1_36_49 z1_37_38 z1_37_39 z1_37_40 z1_37_41 z1_37_42 z1_37_43 z1_37_44 z1_37_45 z1_37_46 z1_37_47 z1_37_48 z1_37_49 z1_38_39 z1_38_40 z1_38_41 z1_38_42 z1_38_43 z1_38_44 z1_38_45 z1_38_46 z1_38_47 z1_38_48 z1_38_49 z1_39_40 z1_39_41 z1_39_42 z1_39_43 z1_39_44 z1_39_45 z1_39_46 z1_39_47 z1_39_48 z1_39_49 z1_40_41 z1_40_42 z1_40_43 z1_40_44 z1_40_45 z1_40_46 z1_40_47 z1_40_48 z1_40_49 z1_41_42 z1_41_43 z1_41_44 z1_41_45 z1_41_46 z1_41_47 z1_41_48 z1_41_49 z1_42_43 z1_42_44 z1_42_45 z1_42_46 z1_42_47 z1_42_48 z1_42_49 z1_43_44 z1_43_45 z1_43_46 z1_43_47 z1_43_48 z1_43_49 z1_44_45 z1_44_46 z1_44_47 z1_44_48 z1_44_49 z1_45_46 z1_45_47 z1_45_48 z1_45_49 z1_46_47 z1_46_48 z1_46_49 z1_47_48 z1_47_49 z1_48_49 z2_0_1 z2_0_2 z2_0_3 z2_0_4 z2_0_5 z2_0_6 z2_0_7 z2_0_8 z2_0_9 z2_0_10 z2_0_11 z2_0_12 z2_0_13 z2_0_14 z2_0_15 z2_0_16 z2_0_17 z2_0_18 z2_0_19 z2_0_20 z2_0_21 z2_0_22 z2_0_23 z2_0_24 z2_0_25 z2_0_26 z2_0_27 z2_0_28 z2_0_29 z2_0_30 z2_0_31 z2_0_32 z2_0_33 z2_0_34 z2_0_35 z2_0_36 z2_0_37 z2_0_38 z2_0_39 z2_0_40 z2_0_41 z2_0_42 z2_0_43 z2_0_44 z2_0_45 z2_0_46 z2_0_47 z2_0_48 z2_0_49 z2_1_2 z2_1_3 z2_1_4 z2_1_5 z2_1_6 z2_1_7 z2_1_8 z2_1_9 z2_1_10 z2_1_11 z2_1_12 z2_1_13 z2_1_14 z2_1_15 z2_1_16 z2_1_17 z2_1_18 z2_1_19 z2_1_20 z2_1_21 z2_1_22 z2_1_23 z2_1_24 z2_1_25 z2_1_26 z2_1_27 z2_1_28 z2_1_29 z2_1_30 z2_1_31 z2_1_32 z2_1_33 z2_1_34 z2_1_35 z2_1_36 z2_1_37 z2_1_38 z2_1_39 z2_1_40 z2_1_41 z2_1_42 z2_1_43 z2_1_44 z2_1_45 z2_1_46 z2_1_47 z2_1_48 z2_1_49 z2_2_3 z2_2_4 z2_2_5 z2_2_6 z2_2_7 z2_2_8 z2_2_9 z2_2_10 z2_2_11 z2_2_12 z2_2_13 z2_2_14 z2_2_15 z2_2_16 z2_2_17 z2_2_18 z2_2_19 z2_2_20 z2_2_21 z2_2_22 z2_2_23 z2_2_24 z2_2_25 z2_2_26 z2_2_27 z2_2_28 z2_2_29 z2_2_30 z2_2_31 z2_2_32 z2_2_33 z2_2_34 z2_2_35 z2_2_36 z2_2_37 z2_2_38 z2_2_39 z2_2_40 z2_2_41 z2_2_42 z2_2_43 z2_2_44 z2_2_45 z2_2_46 z2_2_47 z2_2_48 z2_2_49 z2_3_4 z2_3_5 z2_3_6 z2_3_7 z2_3_8 z2_3_9 z2_3_10 z2_3_11 z2_3_12 z2_3_13 z2_3_14 z2_3_15 z2_3_16 z2_3_17 z2_3_18 z2_3_19 z2_3_20 z2_3_21 z2_3_22 z2_3_23 z2_3_24 z2_3_25 z2_3_26 z2_3_27 z2_3_28 z2_3_29 z2_3_30 z2_3_31 z2_3_32 z2_3_33 z2_3_34 z2_3_35 z2_3_36 z2_3_37 z2_3_38 z2_3_39 z2_3_40 z2_3_41 z2_3_42 z2_3_43 z2_3_44 z2_3_45 z2_3_46 z2_3_47 z2_3_48 z2_3_49 z2_4_5 z2_4_6 z2_4_7 z2_4_8 z2_4_9 z2_4_10 z2_4_11 z2_4_12 z2_4_13 z2_4_14 z2_4_15 z2_4_16 z2_4_17 z2_4_18 z2_4_19 z2_4_20 z2_4_21 z2_4_22 z2_4_23 z2_4_24 z2_4_25 z2_4_26 z2_4_27 z2_4_28 z2_4_29 z2_4_30 z2_4_31 z2_4_32 z2_4_33 z2_4_34 z2_4_35 z2_4_36 z2_4_37 z2_4_38 z2_4_39 z2_4_40 z2_4_41 z2_4_42 z2_4_43 z2_4_44 z2_4_45 z2_4_46 z2_4_47 z2_4_48 z2_4_49 z2_5_6 z2_5_7 z2_5_8 z2_5_9 z2_5_10 z2_5_11 z2_5_12 z2_5_13 z2_5_14 z2_5_15 z2_5_16 z2_5_17 z2_5_18 z2_5_19 z2_5_20 z2_5_21 z2_5_22 z2_5_23 z2_5_24 z2_5_25 z2_5_26 z2_5_27 z2_5_28 z2_5_29 z2_5_30 z2_5_31 z2_5_32 z2_5_33 z2_5_34 z2_5_35 z2_5_36 z2_5_37 z2_5_38 z2_5_39 z2_5_40 z2_5_41 z2_5_42 z2_5_43 z2_5_44 z2_5_45 z2_5_46 z2_5_47 z2_5_48 z2_5_49 z2_6_7 z2_6_8 z2_6_9 z2_6_10 z2_6_11 z2_6_12 z2_6_13 z2_6_14 z2_6_15 z2_6_16 z2_6_17 z2_6_18 z2_6_19 z2_6_20 z2_6_21 z2_6_22 z2_6_23 z2_6_24 z2_6_25 z2_6_26 z2_6_27 z2_6_28 z2_6_29 z2_6_30 z2_6_31 z2_6_32 z2_6_33 z2_6_34 z2_6_35 z2_6_36 z2_6_37 z2_6_38 z2_6_39 z2_6_40 z2_6_41 z2_6_42 z2_6_43 z2_6_44 z2_6_45 z2_6_46 z2_6_47 z2_6_48 z2_6_49 z2_7_8 z2_7_9 z2_7_10 z2_7_11 z2_7_12 z2_7_13 z2_7_14 z2_7_15 z2_7_16 z2_7_17 z2_7_18 z2_7_19 z2_7_20 z2_7_21 z2_7_22 z2_7_23 z2_7_24 z2_7_25 z2_7_26 z2_7_27 z2_7_28 z2_7_29 z2_7_30 z2_7_31 z2_7_32 z2_7_33 z2_7_34 z2_7_35 z2_7_36 z2_7_37 z2_7_38 z2_7_39 z2_7_40 z2_7_41 z2_7_42 z2_7_43 z2_7_44 z2_7_45 z2_7_46 z2_7_47 z2_7_48 z2_7_49 z2_8_9 z2_8_10 z2_8_11 z2_8_12 z2_8_13 z2_8_14 z2_8_15 z2_8_16 z2_8_17 z2_8_18 z2_8_19 z2_8_20 z2_8_21 z2_8_22 z2_8_23 z2_8_24 z2_8_25 z2_8_26 z2_8_27 z2_8_28 z2_8_29 z2_8_30 z2_8_31 z2_8_32 z2_8_33 z2_8_34 z2_8_35 z2_8_36 z2_8_37 z2_8_38 z2_8_39 z2_8_40 z2_8_41 z2_8_42 z2_8_43 z2_8_44 z2_8_45 z2_8_46 z2_8_47 z2_8_48 z2_8_49 z2_9_10 z2_9_11 z2_9_12 z2_9_13 z2_9_14 z2_9_15 z2_9_16 z2_9_17 z2_9_18 z2_9_19 z2_9_20 z2_9_21 z2_9_22 z2_9_23 z2_9_24 z2_9_25 z2_9_26 z2_9_27 z2_9_28 z2_9_29 z2_9_30 z2_9_31 z2_9_32 z2_9_33 z2_9_34 z2_9_35 z2_9_36 z2_9_37 z2_9_38 z2_9_39 z2_9_40 z2_9_41 z2_9_42 z2_9_43 z2_9_44 z2_9_45 z2_9_46 z2_9_47 z2_9_48 z2_9_49 z2_10_11 z2_10_12 z2_10_13 z2_10_14 z2_10_15 z2_10_16 z2_10_17 z2_10_18 z2_10_19 z2_10_20 z2_10_21 z2_10_22 z2_10_23 z2_10_24 z2_10_25 z2_10_26 z2_10_27 z2_10_28 z2_10_29 z2_10_30 z2_10_31 z2_10_32 z2_10_33 z2_10_34 z2_10_35 z2_10_36 z2_10_37 z2_10_38 z2_10_39 z2_10_40 z2_10_41 z2_10_42 z2_10_43 z2_10_44 z2_10_45 z2_10_46 z2_10_47 z2_10_48 z2_10_49 z2_11_12 z2_11_13 z2_11_14 z2_11_15 z2_11_16 z2_11_17 z2_11_18 z2_11_19 z2_11_20 z2_11_21 z2_11_22 z2_11_23 z2_11_24 z2_11_25 z2_11_26 z2_11_27 z2_11_28 z2_11_29 z2_11_30 z2_11_31 z2_11_32 z2_11_33 z2_11_34 z2_11_35 z2_11_36 z2_11_37 z2_11_38 z2_11_39 z2_11_40 z2_11_41 z2_11_42 z2_11_43 z2_11_44 z2_11_45 z2_11_46 z2_11_47 z2_11_48 z2_11_49 z2_12_13 z2_12_14 z2_12_15 z2_12_16 z2_12_17 z2_12_18 z2_12_19 z2_12_20 z2_12_21 z2_12_22 z2_12_23 z2_12_24 z2_12_25 z2_12_26 z2_12_27 z2_12_28 z2_12_29 z2_12_30 z2_12_31 z2_12_32 z2_12_33 z2_12_34 z2_12_35 z2_12_36 z2_12_37 z2_12_38 z2_12_39 z2_12_40 z2_12_41 z2_12_42 z2_12_43 z2_12_44 z2_12_45 z2_12_46 z2_12_47 z2_12_48 z2_12_49 z2_13_14 z2_13_15 z2_13_16 z2_13_17 z2_13_18 z2_13_19 z2_13_20 z2_13_21 z2_13_22 z2_13_23 z2_13_24 z2_13_25 z2_13_26 z2_13_27 z2_13_28 z2_13_29 z2_13_30 z2_13_31 z2_13_32 z2_13_33 z2_13_34 z2_13_35 z2_13_36 z2_13_37 z2_13_38 z2_13_39 z2_13_40 z2_13_41 z2_13_42 z2_13_43 z2_13_44 z2_13_45 z2_13_46 z2_13_47 z2_13_48 z2_13_49 z2_14_15 z2_14_16 z2_14_17 z2_14_18 z2_14_19 z2_14_20 z2_14_21 z2_14_22 z2_14_23 z2_14_24 z2_14_25 z2_14_26 z2_14_27 z2_14_28 z2_14_29 z2_14_30 z2_14_31 z2_14_32 z2_14_33 z2_14_34 z2_14_35 z2_14_36 z2_14_37 z2_14_38 z2_14_39 z2_14_40 z2_14_41 z2_14_42 z2_14_43 z2_14_44 z2_14_45 z2_14_46 z2_14_47 z2_14_48 z2_14_49 z2_15_16 z2_15_17 z2_15_18 z2_15_19 z2_15_20 z2_15_21 z2_15_22 z2_15_23 z2_15_24 z2_15_25 z2_15_26 z2_15_27 z2_15_28 z2_15_29 z2_15_30 z2_15_31 z2_15_32 z2_15_33 z2_15_34 z2_15_35 z2_15_36 z2_15_37 z2_15_38 z2_15_39 z2_15_40 z2_15_41 z2_15_42 z2_15_43 z2_15_44 z2_15_45 z2_15_46 z2_15_47 z2_15_48 z2_15_49 z2_16_17 z2_16_18 z2_16_19 z2_16_20 z2_16_21 z2_16_22 z2_16_23 z2_16_24 z2_16_25 z2_16_26 z2_16_27 z2_16_28 z2_16_29 z2_16_30 z2_16_31 z2_16_32 z2_16_33 z2_16_34 z2_16_35 z2_16_36 z2_16_37 z2_16_38 z2_16_39 z2_16_40 z2_16_41 z2_16_42 z2_16_43 z2_16_44 z2_16_45 z2_16_46 z2_16_47 z2_16_48 z2_16_49 z2_17_18 z2_17_19 z2_17_20 z2_17_21 z2_17_22 z2_17_23 z2_17_24 z2_17_25 z2_17_26 z2_17_27 z2_17_28 z2_17_29 z2_17_30 z2_17_31 z2_17_32 z2_17_33 z2_17_34 z2_17_35 z2_17_36 z2_17_37 z2_17_38 z2_17_39 z2_17_40 z2_17_41 z2_17_42 z2_17_43 z2_17_44 z2_17_45 z2_17_46 z2_17_47 z2_17_48 z2_17_49 z2_18_19 z2_18_20 z2_18_21 z2_18_22 z2_18_23 z2_18_24 z2_18_25 z2_18_26 z2_18_27 z2_18_28 z2_18_29 z2_18_30 z2_18_31 z2_18_32 z2_18_33 z2_18_34 z2_18_35 z2_18_36 z2_18_37 z2_18_38 z2_18_39 z2_18_40 z2_18_41 z2_18_42 z2_18_43 z2_18_44 z2_18_45 z2_18_46 z2_18_47 z2_18_48 z2_18_49 z2_19_20 z2_19_21 z2_19_22 z2_19_23 z2_19_24 z2_19_25 z2_19_26 z2_19_27 z2_19_28 z2_19_29 z2_19_30 z2_19_31 z2_19_32 z2_19_33 z2_19_34 z2_19_35 z2_19_36 z2_19_37 z2_19_38 z2_19_39 z2_19_40 z2_19_41 z2_19_42 z2_19_43 z2_19_44 z2_19_45 z2_19_46 z2_19_47 z2_19_48 z2_19_49 z2_20_21 z2_20_22 z2_20_23 z2_20_24 z2_20_25 z2_20_26 z2_20_27 z2_20_28 z2_20_29 z2_20_30 z2_20_31 z2_20_32 z2_20_33 z2_20_34 z2_20_35 z2_20_36 z2_20_37 z2_20_38 z2_20_39 z2_20_40 z2_20_41 z2_20_42 z2_20_43 z2_20_44 z2_20_45 z2_20_46 z2_20_47 z2_20_48 z2_20_49 z2_21_22 z2_21_23 z2_21_24 z2_21_25 z2_21_26 z2_21_27 z2_21_28 z2_21_29 z2_21_30 z2_21_31 z2_21_32 z2_21_33 z2_21_34 z2_21_35 z2_21_36 z2_21_37 z2_21_38 z2_21_39 z2_21_40 z2_21_41 z2_21_42 z2_21_43 z2_21_44 z2_21_45 z2_21_46 z2_21_47 z2_21_48 z2_21_49 z2_22_23 z2_22_24 z2_22_25 z2_22_26 z2_22_27 z2_22_28 z2_22_29 z2_22_30 z2_22_31 z2_22_32 z2_22_33 z2_22_34 z2_22_35 z2_22_36 z2_22_37 z2_22_38 z2_22_39 z2_22_40 z2_22_41 z2_22_42 z2_22_43 z2_22_44 z2_22_45 z2_22_46 z2_22_47 z2_22_48 z2_22_49 z2_23_24 z2_23_25 z2_23_26 z2_23_27 z2_23_28 z2_23_29 z2_23_30 z2_23_31 z2_23_32 z2_23_33 z2_23_34 z2_23_35 z2_23_36 z2_23_37 z2_23_38 z2_23_39 z2_23_40 z2_23_41 z2_23_42 z2_23_43 z2_23_44 z2_23_45 z2_23_46 z2_23_47 z2_23_48 z2_23_49 z2_24_25 z2_24_26 z2_24_27 z2_24_28 z2_24_29 z2_24_30 z2_24_31 z2_24_32 z2_24_33 z2_24_34 z2_24_35 z2_24_36 z2_24_37 z2_24_38 z2_24_39 z2_24_40 z2_24_41 z2_24_42 z2_24_43 z2_24_44 z2_24_45 z2_24_46 z2_24_47 z2_24_48 z2_24_49 z2_25_26 z2_25_27 z2_25_28 z2_25_29 z2_25_30 z2_25_31 z2_25_32 z2_25_33 z2_25_34 z2_25_35 z2_25_36 z2_25_37 z2_25_38 z2_25_39 z2_25_40 z2_25_41 z2_25_42 z2_25_43 z2_25_44 z2_25_45 z2_25_46 z2_25_47 z2_25_48 z2_25_49 z2_26_27 z2_26_28 z2_26_29 z2_26_30 z2_26_31 z2_26_32 z2_26_33 z2_26_34 z2_26_35 z2_26_36 z2_26_37 z2_26_38 z2_26_39 z2_26_40 z2_26_41 z2_26_42 z2_26_43 z2_26_44 z2_26_45 z2_26_46 z2_26_47 z2_26_48 z2_26_49 z2_27_28 z2_27_29 z2_27_30 z2_27_31 z2_27_32 z2_27_33 z2_27_34 z2_27_35 z2_27_36 z2_27_37 z2_27_38 z2_27_39 z2_27_40 z2_27_41 z2_27_42 z2_27_43 z2_27_44 z2_27_45 z2_27_46 z2_27_47 z2_27_48 z2_27_49 z2_28_29 z2_28_30 z2_28_31 z2_28_32 z2_28_33 z2_28_34 z2_28_35 z2_28_36 z2_28_37 z2_28_38 z2_28_39 z2_28_40 z2_28_41 z2_28_42 z2_28_43 z2_28_44 z2_28_45 z2_28_46 z2_28_47 z2_28_48 z2_28_49 z2_29_30 z2_29_31 z2_29_32 z2_29_33 z2_29_34 z2_29_35 z2_29_36 z2_29_37 z2_29_38 z2_29_39 z2_29_40 z2_29_41 z2_29_42 z2_29_43 z2_29_44 z2_29_45 z2_29_46 z2_29_47 z2_29_48 z2_29_49 z2_30_31 z2_30_32 z2_30_33 z2_30_34 z2_30_35 z2_30_36 z2_30_37 z2_30_38 z2_30_39 z2_30_40 z2_30_41 z2_30_42 z2_30_43 z2_30_44 z2_30_45 z2_30_46 z2_30_47 z2_30_48 z2_30_49 z2_31_32 z2_31_33 z2_31_34 z2_31_35 z2_31_36 z2_31_37 z2_31_38 z2_31_39 z2_31_40 z2_31_41 z2_31_42 z2_31_43 z2_31_44 z2_31_45 z2_31_46 z2_31_47 z2_31_48 z2_31_49 z2_32_33 z2_32_34 z2_32_35 z2_32_36 z2_32_37 z2_32_38 z2_32_39 z2_32_40 z2_32_41 z2_32_42 z2_32_43 z2_32_44 z2_32_45 z2_32_46 z2_32_47 z2_32_48 z2_32_49 z2_33_34 z2_33_35 z2_33_36 z2_33_37 z2_33_38 z2_33_39 z2_33_40 z2_33_41 z2_33_42 z2_33_43 z2_33_44 z2_33_45 z2_33_46 z2_33_47 z2_33_48 z2_33_49 z2_34_35 z2_34_36 z2_34_37 z2_34_38 z2_34_39 z2_34_40 z2_34_41 z2_34_42 z2_34_43 z2_34_44 z2_34_45 z2_34_46 z2_34_47 z2_34_48 z2_34_49 z2_35_36 z2_35_37 z2_35_38 z2_35_39 z2_35_40 z2_35_41 z2_35_42 z2_35_43 z2_35_44 z2_35_45 z2_35_46 z2_35_47 z2_35_48 z2_35_49 z2_36_37 z2_36_38 z2_36_39 z2_36_40 z2_36_41 z2_36_42 z2_36_43 z2_36_44 z2_36_45 z2_36_46 z2_36_47 z2_36_48 z2_36_49 z2_37_38 z2_37_39 z2_37_40 z2_37_41 z2_37_42 z2_37_43 z2_37_44 z2_37_45 z2_37_46 z2_37_47 z2_37_48 z2_37_49 z2_38_39 z2_38_40 z2_38_41 z2_38_42 z2_38_43 z2_38_44 z2_38_45 z2_38_46 z2_38_47 z2_38_48 z2_38_49 z2_39_40 z2_39_41 z2_39_42 z2_39_43 z2_39_44 z2_39_45 z2_39_46 z2_39_47 z2_39_48 z2_39_49 z2_40_41 z2_40_42 z2_40_43 z2_40_44 z2_40_45 z2_40_46 z2_40_47 z2_40_48 z2_40_49 z2_41_42 z2_41_43 z2_41_44 z2_41_45 z2_41_46 z2_41_47 z2_41_48 z2_41_49 z2_42_43 z2_42_44 z2_42_45 z2_42_46 z2_42_47 z2_42_48 z2_42_49 z2_43_44 z2_43_45 z2_43_46 z2_43_47 z2_43_48 z2_43_49 z2_44_45 z2_44_46 z2_44_47 z2_44_48 z2_44_49 z2_45_46 z2_45_47 z2_45_48 z2_45_49 z2_46_47 z2_46_48 z2_46_49 z2_47_48 z2_47_49 z2_48_49 z3_0_1 z3_0_2 z3_0_3 z3_0_4 z3_0_5 z3_0_6 z3_0_7 z3_0_8 z3_0_9 z3_0_10 z3_0_11 z3_0_12 z3_0_13 z3_0_14 z3_0_15 z3_0_16 z3_0_17 z3_0_18 z3_0_19 z3_0_20 z3_0_21 z3_0_22 z3_0_23 z3_0_24 z3_0_25 z3_0_26 z3_0_27 z3_0_28 z3_0_29 z3_0_30 z3_0_31 z3_0_32 z3_0_33 z3_0_34 z3_0_35 z3_0_36 z3_0_37 z3_0_38 z3_0_39 z3_0_40 z3_0_41 z3_0_42 z3_0_43 z3_0_44 z3_0_45 z3_0_46 z3_0_47 z3_0_48 z3_0_49 z3_1_2 z3_1_3 z3_1_4 z3_1_5 z3_1_6 z3_1_7 z3_1_8 z3_1_9 z3_1_10 z3_1_11 z3_1_12 z3_1_13 z3_1_14 z3_1_15 z3_1_16 z3_1_17 z3_1_18 z3_1_19 z3_1_20 z3_1_21 z3_1_22 z3_1_23 z3_1_24 z3_1_25 z3_1_26 z3_1_27 z3_1_28 z3_1_29 z3_1_30 z3_1_31 z3_1_32 z3_1_33 z3_1_34 z3_1_35 z3_1_36 z3_1_37 z3_1_38 z3_1_39 z3_1_40 z3_1_41 z3_1_42 z3_1_43 z3_1_44 z3_1_45 z3_1_46 z3_1_47 z3_1_48 z3_1_49 z3_2_3 z3_2_4 z3_2_5 z3_2_6 z3_2_7 z3_2_8 z3_2_9 z3_2_10 z3_2_11 z3_2_12 z3_2_13 z3_2_14 z3_2_15 z3_2_16 z3_2_17 z3_2_18 z3_2_19 z3_2_20 z3_2_21 z3_2_22 z3_2_23 z3_2_24 z3_2_25 z3_2_26 z3_2_27 z3_2_28 z3_2_29 z3_2_30 z3_2_31 z3_2_32 z3_2_33 z3_2_34 z3_2_35 z3_2_36 z3_2_37 z3_2_38 z3_2_39 z3_2_40 z3_2_41 z3_2_42 z3_2_43 z3_2_44 z3_2_45 z3_2_46 z3_2_47 z3_2_48 z3_2_49 z3_3_4 z3_3_5 z3_3_6 z3_3_7 z3_3_8 z3_3_9 z3_3_10 z3_3_11 z3_3_12 z3_3_13 z3_3_14 z3_3_15 z3_3_16 z3_3_17 z3_3_18 z3_3_19 z3_3_20 z3_3_21 z3_3_22 z3_3_23 z3_3_24 z3_3_25 z3_3_26 z3_3_27 z3_3_28 z3_3_29 z3_3_30 z3_3_31 z3_3_32 z3_3_33 z3_3_34 z3_3_35 z3_3_36 z3_3_37 z3_3_38 z3_3_39 z3_3_40 z3_3_41 z3_3_42 z3_3_43 z3_3_44 z3_3_45 z3_3_46 z3_3_47 z3_3_48 z3_3_49 z3_4_5 z3_4_6 z3_4_7 z3_4_8 z3_4_9 z3_4_10 z3_4_11 z3_4_12 z3_4_13 z3_4_14 z3_4_15 z3_4_16 z3_4_17 z3_4_18 z3_4_19 z3_4_20 z3_4_21 z3_4_22 z3_4_23 z3_4_24 z3_4_25 z3_4_26 z3_4_27 z3_4_28 z3_4_29 z3_4_30 z3_4_31 z3_4_32 z3_4_33 z3_4_34 z3_4_35 z3_4_36 z3_4_37 z3_4_38 z3_4_39 z3_4_40 z3_4_41 z3_4_42 z3_4_43 z3_4_44 z3_4_45 z3_4_46 z3_4_47 z3_4_48 z3_4_49 z3_5_6 z3_5_7 z3_5_8 z3_5_9 z3_5_10 z3_5_11 z3_5_12 z3_5_13 z3_5_14 z3_5_15 z3_5_16 z3_5_17 z3_5_18 z3_5_19 z3_5_20 z3_5_21 z3_5_22 z3_5_23 z3_5_24 z3_5_25 z3_5_26 z3_5_27 z3_5_28 z3_5_29 z3_5_30 z3_5_31 z3_5_32 z3_5_33 z3_5_34 z3_5_35 z3_5_36 z3_5_37 z3_5_38 z3_5_39 z3_5_40 z3_5_41 z3_5_42 z3_5_43 z3_5_44 z3_5_45 z3_5_46 z3_5_47 z3_5_48 z3_5_49 z3_6_7 z3_6_8 z3_6_9 z3_6_10 z3_6_11 z3_6_12 z3_6_13 z3_6_14 z3_6_15 z3_6_16 z3_6_17 z3_6_18 z3_6_19 z3_6_20 z3_6_21 z3_6_22 z3_6_23 z3_6_24 z3_6_25 z3_6_26 z3_6_27 z3_6_28 z3_6_29 z3_6_30 z3_6_31 z3_6_32 z3_6_33 z3_6_34 z3_6_35 z3_6_36 z3_6_37 z3_6_38 z3_6_39 z3_6_40 z3_6_41 z3_6_42 z3_6_43 z3_6_44 z3_6_45 z3_6_46 z3_6_47 z3_6_48 z3_6_49 z3_7_8 z3_7_9 z3_7_10 z3_7_11 z3_7_12 z3_7_13 z3_7_14 z3_7_15 z3_7_16 z3_7_17 z3_7_18 z3_7_19 z3_7_20 z3_7_21 z3_7_22 z3_7_23 z3_7_24 z3_7_25 z3_7_26 z3_7_27 z3_7_28 z3_7_29 z3_7_30 z3_7_31 z3_7_32 z3_7_33 z3_7_34 z3_7_35 z3_7_36 z3_7_37 z3_7_38 z3_7_39 z3_7_40 z3_7_41 z3_7_42 z3_7_43 z3_7_44 z3_7_45 z3_7_46 z3_7_47 z3_7_48 z3_7_49 z3_8_9 z3_8_10 z3_8_11 z3_8_12 z3_8_13 z3_8_14 z3_8_15 z3_8_16 z3_8_17 z3_8_18 z3_8_19 z3_8_20 z3_8_21 z3_8_22 z3_8_23 z3_8_24 z3_8_25 z3_8_26 z3_8_27 z3_8_28 z3_8_29 z3_8_30 z3_8_31 z3_8_32 z3_8_33 z3_8_34 z3_8_35 z3_8_36 z3_8_37 z3_8_38 z3_8_39 z3_8_40 z3_8_41 z3_8_42 z3_8_43 z3_8_44 z3_8_45 z3_8_46 z3_8_47 z3_8_48 z3_8_49 z3_9_10 z3_9_11 z3_9_12 z3_9_13 z3_9_14 z3_9_15 z3_9_16 z3_9_17 z3_9_18 z3_9_19 z3_9_20 z3_9_21 z3_9_22 z3_9_23 z3_9_24 z3_9_25 z3_9_26 z3_9_27 z3_9_28 z3_9_29 z3_9_30 z3_9_31 z3_9_32 z3_9_33 z3_9_34 z3_9_35 z3_9_36 z3_9_37 z3_9_38 z3_9_39 z3_9_40 z3_9_41 z3_9_42 z3_9_43 z3_9_44 z3_9_45 z3_9_46 z3_9_47 z3_9_48 z3_9_49 z3_10_11 z3_10_12 z3_10_13 z3_10_14 z3_10_15 z3_10_16 z3_10_17 z3_10_18 z3_10_19 z3_10_20 z3_10_21 z3_10_22 z3_10_23 z3_10_24 z3_10_25 z3_10_26 z3_10_27 z3_10_28 z3_10_29 z3_10_30 z3_10_31 z3_10_32 z3_10_33 z3_10_34 z3_10_35 z3_10_36 z3_10_37 z3_10_38 z3_10_39 z3_10_40 z3_10_41 z3_10_42 z3_10_43 z3_10_44 z3_10_45 z3_10_46 z3_10_47 z3_10_48 z3_10_49 z3_11_12 z3_11_13 z3_11_14 z3_11_15 z3_11_16 z3_11_17 z3_11_18 z3_11_19 z3_11_20 z3_11_21 z3_11_22 z3_11_23 z3_11_24 z3_11_25 z3_11_26 z3_11_27 z3_11_28 z3_11_29 z3_11_30 z3_11_31 z3_11_32 z3_11_33 z3_11_34 z3_11_35 z3_11_36 z3_11_37 z3_11_38 z3_11_39 z3_11_40 z3_11_41 z3_11_42 z3_11_43 z3_11_44 z3_11_45 z3_11_46 z3_11_47 z3_11_48 z3_11_49 z3_12_13 z3_12_14 z3_12_15 z3_12_16 z3_12_17 z3_12_18 z3_12_19 z3_12_20 z3_12_21 z3_12_22 z3_12_23 z3_12_24 z3_12_25 z3_12_26 z3_12_27 z3_12_28 z3_12_29 z3_12_30 z3_12_31 z3_12_32 z3_12_33 z3_12_34 z3_12_35 z3_12_36 z3_12_37 z3_12_38 z3_12_39 z3_12_40 z3_12_41 z3_12_42 z3_12_43 z3_12_44 z3_12_45 z3_12_46 z3_12_47 z3_12_48 z3_12_49 z3_13_14 z3_13_15 z3_13_16 z3_13_17 z3_13_18 z3_13_19 z3_13_20 z3_13_21 z3_13_22 z3_13_23 z3_13_24 z3_13_25 z3_13_26 z3_13_27 z3_13_28 z3_13_29 z3_13_30 z3_13_31 z3_13_32 z3_13_33 z3_13_34 z3_13_35 z3_13_36 z3_13_37 z3_13_38 z3_13_39 z3_13_40 z3_13_41 z3_13_42 z3_13_43 z3_13_44 z3_13_45 z3_13_46 z3_13_47 z3_13_48 z3_13_49 z3_14_15 z3_14_16 z3_14_17 z3_14_18 z3_14_19 z3_14_20 z3_14_21 z3_14_22 z3_14_23 z3_14_24 z3_14_25 z3_14_26 z3_14_27 z3_14_28 z3_14_29 z3_14_30 z3_14_31 z3_14_32 z3_14_33 z3_14_34 z3_14_35 z3_14_36 z3_14_37 z3_14_38 z3_14_39 z3_14_40 z3_14_41 z3_14_42 z3_14_43 z3_14_44 z3_14_45 z3_14_46 z3_14_47 z3_14_48 z3_14_49 z3_15_16 z3_15_17 z3_15_18 z3_15_19 z3_15_20 z3_15_21 z3_15_22 z3_15_23 z3_15_24 z3_15_25 z3_15_26 z3_15_27 z3_15_28 z3_15_29 z3_15_30 z3_15_31 z3_15_32 z3_15_33 z3_15_34 z3_15_35 z3_15_36 z3_15_37 z3_15_38 z3_15_39 z3_15_40 z3_15_41 z3_15_42 z3_15_43 z3_15_44 z3_15_45 z3_15_46 z3_15_47 z3_15_48 z3_15_49 z3_16_17 z3_16_18 z3_16_19 z3_16_20 z3_16_21 z3_16_22 z3_16_23 z3_16_24 z3_16_25 z3_16_26 z3_16_27 z3_16_28 z3_16_29 z3_16_30 z3_16_31 z3_16_32 z3_16_33 z3_16_34 z3_16_35 z3_16_36 z3_16_37 z3_16_38 z3_16_39 z3_16_40 z3_16_41 z3_16_42 z3_16_43 z3_16_44 z3_16_45 z3_16_46 z3_16_47 z3_16_48 z3_16_49 z3_17_18 z3_17_19 z3_17_20 z3_17_21 z3_17_22 z3_17_23 z3_17_24 z3_17_25 z3_17_26 z3_17_27 z3_17_28 z3_17_29 z3_17_30 z3_17_31 z3_17_32 z3_17_33 z3_17_34 z3_17_35 z3_17_36 z3_17_37 z3_17_38 z3_17_39 z3_17_40 z3_17_41 z3_17_42 z3_17_43 z3_17_44 z3_17_45 z3_17_46 z3_17_47 z3_17_48 z3_17_49 z3_18_19 z3_18_20 z3_18_21 z3_18_22 z3_18_23 z3_18_24 z3_18_25 z3_18_26 z3_18_27 z3_18_28 z3_18_29 z3_18_30 z3_18_31 z3_18_32 z3_18_33 z3_18_34 z3_18_35 z3_18_36 z3_18_37 z3_18_38 z3_18_39 z3_18_40 z3_18_41 z3_18_42 z3_18_43 z3_18_44 z3_18_45 z3_18_46 z3_18_47 z3_18_48 z3_18_49 z3_19_20 z3_19_21 z3_19_22 z3_19_23 z3_19_24 z3_19_25 z3_19_26 z3_19_27 z3_19_28 z3_19_29 z3_19_30 z3_19_31 z3_19_32 z3_19_33 z3_19_34 z3_19_35 z3_19_36 z3_19_37 z3_19_38 z3_19_39 z3_19_40 z3_19_41 z3_19_42 z3_19_43 z3_19_44 z3_19_45 z3_19_46 z3_19_47 z3_19_48 z3_19_49 z3_20_21 z3_20_22 z3_20_23 z3_20_24 z3_20_25 z3_20_26 z3_20_27 z3_20_28 z3_20_29 z3_20_30 z3_20_31 z3_20_32 z3_20_33 z3_20_34 z3_20_35 z3_20_36 z3_20_37 z3_20_38 z3_20_39 z3_20_40 z3_20_41 z3_20_42 z3_20_43 z3_20_44 z3_20_45 z3_20_46 z3_20_47 z3_20_48 z3_20_49 z3_21_22 z3_21_23 z3_21_24 z3_21_25 z3_21_26 z3_21_27 z3_21_28 z3_21_29 z3_21_30 z3_21_31 z3_21_32 z3_21_33 z3_21_34 z3_21_35 z3_21_36 z3_21_37 z3_21_38 z3_21_39 z3_21_40 z3_21_41 z3_21_42 z3_21_43 z3_21_44 z3_21_45 z3_21_46 z3_21_47 z3_21_48 z3_21_49 z3_22_23 z3_22_24 z3_22_25 z3_22_26 z3_22_27 z3_22_28 z3_22_29 z3_22_30 z3_22_31 z3_22_32 z3_22_33 z3_22_34 z3_22_35 z3_22_36 z3_22_37 z3_22_38 z3_22_39 z3_22_40 z3_22_41 z3_22_42 z3_22_43 z3_22_44 z3_22_45 z3_22_46 z3_22_47 z3_22_48 z3_22_49 z3_23_24 z3_23_25 z3_23_26 z3_23_27 z3_23_28 z3_23_29 z3_23_30 z3_23_31 z3_23_32 z3_23_33 z3_23_34 z3_23_35 z3_23_36 z3_23_37 z3_23_38 z3_23_39 z3_23_40 z3_23_41 z3_23_42 z3_23_43 z3_23_44 z3_23_45 z3_23_46 z3_23_47 z3_23_48 z3_23_49 z3_24_25 z3_24_26 z3_24_27 z3_24_28 z3_24_29 z3_24_30 z3_24_31 z3_24_32 z3_24_33 z3_24_34 z3_24_35 z3_24_36 z3_24_37 z3_24_38 z3_24_39 z3_24_40 z3_24_41 z3_24_42 z3_24_43 z3_24_44 z3_24_45 z3_24_46 z3_24_47 z3_24_48 z3_24_49 z3_25_26 z3_25_27 z3_25_28 z3_25_29 z3_25_30 z3_25_31 z3_25_32 z3_25_33 z3_25_34 z3_25_35 z3_25_36 z3_25_37 z3_25_38 z3_25_39 z3_25_40 z3_25_41 z3_25_42 z3_25_43 z3_25_44 z3_25_45 z3_25_46 z3_25_47 z3_25_48 z3_25_49 z3_26_27 z3_26_28 z3_26_29 z3_26_30 z3_26_31 z3_26_32 z3_26_33 z3_26_34 z3_26_35 z3_26_36 z3_26_37 z3_26_38 z3_26_39 z3_26_40 z3_26_41 z3_26_42 z3_26_43 z3_26_44 z3_26_45 z3_26_46 z3_26_47 z3_26_48 z3_26_49 z3_27_28 z3_27_29 z3_27_30 z3_27_31 z3_27_32 z3_27_33 z3_27_34 z3_27_35 z3_27_36 z3_27_37 z3_27_38 z3_27_39 z3_27_40 z3_27_41 z3_27_42 z3_27_43 z3_27_44 z3_27_45 z3_27_46 z3_27_47 z3_27_48 z3_27_49 z3_28_29 z3_28_30 z3_28_31 z3_28_32 z3_28_33 z3_28_34 z3_28_35 z3_28_36 z3_28_37 z3_28_38 z3_28_39 z3_28_40 z3_28_41 z3_28_42 z3_28_43 z3_28_44 z3_28_45 z3_28_46 z3_28_47 z3_28_48 z3_28_49 z3_29_30 z3_29_31 z3_29_32 z3_29_33 z3_29_34 z3_29_35 z3_29_36 z3_29_37 z3_29_38 z3_29_39 z3_29_40 z3_29_41 z3_29_42 z3_29_43 z3_29_44 z3_29_45 z3_29_46 z3_29_47 z3_29_48 z3_29_49 z3_30_31 z3_30_32 z3_30_33 z3_30_34 z3_30_35 z3_30_36 z3_30_37 z3_30_38 z3_30_39 z3_30_40 z3_30_41 z3_30_42 z3_30_43 z3_30_44 z3_30_45 z3_30_46 z3_30_47 z3_30_48 z3_30_49 z3_31_32 z3_31_33 z3_31_34 z3_31_35 z3_31_36 z3_31_37 z3_31_38 z3_31_39 z3_31_40 z3_31_41 z3_31_42 z3_31_43 z3_31_44 z3_31_45 z3_31_46 z3_31_47 z3_31_48 z3_31_49 z3_32_33 z3_32_34 z3_32_35 z3_32_36 z3_32_37 z3_32_38 z3_32_39 z3_32_40 z3_32_41 z3_32_42 z3_32_43 z3_32_44 z3_32_45 z3_32_46 z3_32_47 z3_32_48 z3_32_49 z3_33_34 z3_33_35 z3_33_36 z3_33_37 z3_33_38 z3_33_39 z3_33_40 z3_33_41 z3_33_42 z3_33_43 z3_33_44 z3_33_45 z3_33_46 z3_33_47 z3_33_48 z3_33_49 z3_34_35 z3_34_36 z3_34_37 z3_34_38 z3_34_39 z3_34_40 z3_34_41 z3_34_42 z3_34_43 z3_34_44 z3_34_45 z3_34_46 z3_34_47 z3_34_48 z3_34_49 z3_35_36 z3_35_37 z3_35_38 z3_35_39 z3_35_40 z3_35_41 z3_35_42 z3_35_43 z3_35_44 z3_35_45 z3_35_46 z3_35_47 z3_35_48 z3_35_49 z3_36_37 z3_36_38 z3_36_39 z3_36_40 z3_36_41 z3_36_42 z3_36_43 z3_36_44 z3_36_45 z3_36_46 z3_36_47 z3_36_48 z3_36_49 z3_37_38 z3_37_39 z3_37_40 z3_37_41 z3_37_42 z3_37_43 z3_37_44 z3_37_45 z3_37_46 z3_37_47 z3_37_48 z3_37_49 z3_38_39 z3_38_40 z3_38_41 z3_38_42 z3_38_43 z3_38_44 z3_38_45 z3_38_46 z3_38_47 z3_38_48 z3_38_49 z3_39_40 z3_39_41 z3_39_42 z3_39_43 z3_39_44 z3_39_45 z3_39_46 z3_39_47 z3_39_48 z3_39_49 z3_40_41 z3_40_42 z3_40_43 z3_40_44 z3_40_45 z3_40_46 z3_40_47 z3_40_48 z3_40_49 z3_41_42 z3_41_43 z3_41_44 z3_41_45 z3_41_46 z3_41_47 z3_41_48 z3_41_49 z3_42_43 z3_42_44 z3_42_45 z3_42_46 z3_42_47 z3_42_48 z3_42_49 z3_43_44 z3_43_45 z3_43_46 z3_43_47 z3_43_48 z3_43_49 z3_44_45 z3_44_46 z3_44_47 z3_44_48 z3_44_49 z3_45_46 z3_45_47 z3_45_48 z3_45_49 z3_46_47 z3_46_48 z3_46_49 z3_47_48 z3_47_49 z3_48_49


General

 x_0 x_1 x_2 x_3 x_4 x_5 x_6 x_7 x_8 x_9 x_10 x_11 x_12 x_13 x_14 x_15 x_16 x_17 x_18 x_19 x_20 x_21 x_22 x_23 x_24 x_25 x_26 x_27 x_28 x_29 x_30 x_31 x_32 x_33 x_34 x_35 x_36 x_37 x_38 x_39 x_40 x_41 x_42 x_43 x_44 x_45 x_46 x_47 x_48 x_49



End
